36
Coordinates from ORCA-job rhac_bp86
  C   -0.00536262292779      2.62686511932544      0.00077591367697
  C   -0.05761078116418      4.13851906584534      0.00122270303303
  C   2.62849909812763      0.00581024487880     -0.00053254056952
  C   4.13973597955614      0.05906786892318     -0.00087576992127
  H   -1.10938870841364      4.45913685230937      0.00008529013774
  H   0.41948889947414      4.53749525870659      0.90287995990449
  H   0.42147347234186      4.53805827021876     -0.89914478711808
  H   4.45972062605313      1.11105007700315     -0.00061946755982
  H   4.53997216238493     -0.41949417738589      0.89944567605751
  H   4.53958736521830     -0.41901166062190     -0.90161435922230
  O   0.00389308482042      2.05335102523512     -1.14079291891290
  O   0.00408956935444      2.05267796631751      1.14202988774202
  O   2.05319490395782     -0.00345092635912     -1.14151733318693
  O   -2.05362425115966      0.00402114676462     -1.14062567162768
  O   0.00100043033650      0.00129002036112     -3.56364300091623
  Rh  -0.00014114129721      0.00032555880944     -1.20056333194955
  Rh  0.00013966813728     -0.00033962398856      1.20056386377534
  O   -0.00408935892867     -2.05269111497354     -1.14202951133604
  O   2.05362273744591     -0.00403505371580      1.14062637454167
  C   -2.62850049049735     -0.00582376383188      0.00053369773323
  O   -0.00389544401242     -2.05336569114947      1.14079322149366
  O   -2.05319631495086      0.00343790190662      1.14151841849664
  O   -0.00100130921806     -0.00130993856344      3.56364341199515
  C   0.00536267634612     -2.62687895866093     -0.00077577417961
  C   -4.13973732393126     -0.05908199336433      0.00087672183039
  C   0.05761387019727     -4.13853289824933     -0.00122326549605
  H   1.10939281174051     -4.45914719753034     -0.00008422342555
  H   -0.41948342644146     -4.53750897360286     -0.90288177905471
  H   -0.42147075080259     -4.53807322751919      0.89914342114814
  H   -4.45972098769238     -1.11106446956934      0.00061646436042
  H   -4.53997346719095      0.41948272446072     -0.89944339983045
  H   -4.53958910765152      0.41899451721239      0.90161664172716
  H   -0.78448407802209      0.00016743504110      4.13168514942943
  H   0.78132061136743      0.00831266735128      4.13320385305070
  H   0.78448229705693     -0.00005648529135     -4.13168640093684
  H   -0.78132269961469     -0.00819856629328     -4.13320413489016
