 Entering Gaussian System, Link 0=/net/cottusp/opt/gaussian/g09revA02_amd64/g09/g09
 Input=rhach.com
 Output=rhach.log
 Initial command:
 /net/cottusp/opt/gaussian/g09revA02_amd64/g09/l1.exe /scratch/case/Gau-10660.inp -scrdir=/scratch/case/
 Entering Link 1 = /net/cottusp/opt/gaussian/g09revA02_amd64/g09/l1.exe PID=     10661.
  
 Copyright (c) 1988,1990,1992,1993,1995,1998,2003,2009, Gaussian, Inc.
                  All Rights Reserved.
  
 This is part of the Gaussian(R) 09 program.  It is based on
 the Gaussian(R) 03 system (copyright 2003, Gaussian, Inc.),
 the Gaussian(R) 98 system (copyright 1998, Gaussian, Inc.),
 the Gaussian(R) 94 system (copyright 1995, Gaussian, Inc.),
 the Gaussian 92(TM) system (copyright 1992, Gaussian, Inc.),
 the Gaussian 90(TM) system (copyright 1990, Gaussian, Inc.),
 the Gaussian 88(TM) system (copyright 1988, Gaussian, Inc.),
 the Gaussian 86(TM) system (copyright 1986, Carnegie Mellon
 University), and the Gaussian 82(TM) system (copyright 1983,
 Carnegie Mellon University). Gaussian is a federally registered
 trademark of Gaussian, Inc.
  
 This software contains proprietary and confidential information,
 including trade secrets, belonging to Gaussian, Inc.
  
 This software is provided under written license and may be
 used, copied, transmitted, or stored only in accord with that
 written license.
  
 The following legend is applicable only to US Government
 contracts under FAR:
  
                    RESTRICTED RIGHTS LEGEND
  
 Use, reproduction and disclosure by the US Government is
 subject to restrictions as set forth in subparagraphs (a)
 and (c) of the Commercial Computer Software - Restricted
 Rights clause in FAR 52.227-19.
  
 Gaussian, Inc.
 340 Quinnipiac St., Bldg. 40, Wallingford CT 06492
  
  
 ---------------------------------------------------------------
 Warning -- This program may not be used in any manner that
 competes with the business of Gaussian, Inc. or will provide
 assistance to any competitor of Gaussian, Inc.  The licensee
 of this program is prohibited from giving any competitor of
 Gaussian, Inc. access to this program.  By using this program,
 the user acknowledges that Gaussian, Inc. is engaged in the
 business of creating and licensing software in the field of
 computational chemistry and represents and warrants to the
 licensee that it is not a competitor of Gaussian, Inc. and that
 it will not use this program in any manner prohibited above.
 ---------------------------------------------------------------
  

 Cite this work as:
 Gaussian 09, Revision A.02,
 M. J. Frisch, G. W. Trucks, H. B. Schlegel, G. E. Scuseria, 
 M. A. Robb, J. R. Cheeseman, G. Scalmani, V. Barone, B. Mennucci, 
 G. A. Petersson, H. Nakatsuji, M. Caricato, X. Li, H. P. Hratchian, 
 A. F. Izmaylov, J. Bloino, G. Zheng, J. L. Sonnenberg, M. Hada, 
 M. Ehara, K. Toyota, R. Fukuda, J. Hasegawa, M. Ishida, T. Nakajima, 
 Y. Honda, O. Kitao, H. Nakai, T. Vreven, J. A. Montgomery, Jr., 
 J. E. Peralta, F. Ogliaro, M. Bearpark, J. J. Heyd, E. Brothers, 
 K. N. Kudin, V. N. Staroverov, R. Kobayashi, J. Normand, 
 K. Raghavachari, A. Rendell, J. C. Burant, S. S. Iyengar, J. Tomasi, 
 M. Cossi, N. Rega, J. M. Millam, M. Klene, J. E. Knox, J. B. Cross, 
 V. Bakken, C. Adamo, J. Jaramillo, R. Gomperts, R. E. Stratmann, 
 O. Yazyev, A. J. Austin, R. Cammi, C. Pomelli, J. W. Ochterski, 
 R. L. Martin, K. Morokuma, V. G. Zakrzewski, G. A. Voth, 
 P. Salvador, J. J. Dannenberg, S. Dapprich, A. D. Daniels, 
 O. Farkas, J. B. Foresman, J. V. Ortiz, J. Cioslowski, 
 and D. J. Fox, Gaussian, Inc., Wallingford CT, 2009.
 
 ******************************************
 Gaussian 09:  AM64L-G09RevA.02 11-Jun-2009
                24-Nov-2013 
 ******************************************
 %chk=rhacf.chk
 %NProcShared=2
 Will use up to    2 processors via shared memory.
 ----------------------------------------------------------------------
 #p BP86/LanL2DZ Opt=VTight Freq=(HPModes,Raman) Int=Ultrafine nosymm i
 op(7/33=1)
 ----------------------------------------------------------------------
 1/7=1,14=-1,18=20,19=15,26=3,38=1/1,3;
 2/9=110,12=2,15=1,17=6,18=5,40=1/2;
 3/5=6,6=3,11=2,16=1,25=1,30=1,71=1,74=404,75=-5/1,2,3;
 4//1;
 5/5=2,38=5/2;
 6/7=2,8=2,9=2,10=2,28=1/1;
 7/30=1,33=1/1,2,3,16;
 1/7=1,14=-1,18=20,19=15/3(2);
 2/9=110,15=1/2;
 99//99;
 2/9=110,15=1/2;
 3/5=6,6=3,11=2,16=1,25=1,30=1,71=1,74=404,75=-5/1,2,3;
 4/5=5,16=3/1;
 5/5=2,38=5/2;
 7/30=1,33=1/1,2,3,16;
 1/7=1,14=-1,18=20,19=15/3(-5);
 2/9=110,15=1/2;
 6/7=2,8=2,9=2,10=2,19=2,28=1/1;
 99/9=1/99;
 Leave Link    1 at Sun Nov 24 22:03:47 2013, MaxMem=          0 cpu:       0.3
 (Enter /net/cottusp/opt/gaussian/g09revA02_amd64/g09/l101.exe)
 ----------------------------------
 di-rhodium tetra-acetate dihydrate
 ----------------------------------
 Symbolic Z-matrix:
 Charge =  0 Multiplicity = 1
 6                    -0.00861   2.67944   0. 
 6                    -0.06098   4.1978    0. 
 6                     2.68026   0.00915   0. 
 6                     4.19827   0.06252   0. 
 1                    -1.11672   4.52826   0. 
 1                     0.42473   4.59339   0.90624 
 1                     0.42473   4.59339  -0.90624 
 1                     4.52827   1.11839   0. 
 1                     4.5948   -0.42355   0.90562 
 1                     4.5948   -0.42355  -0.90562 
 8                     0.        2.07638  -1.16776 
 8                     0.        2.07638   1.16776 
 8                     2.07582   0.00032  -1.16721 
 8                    -2.07582  -0.00032  -1.16721 
 8                     0.        0.       -3.5002 
 45                    0.        0.       -1.22511 
 45                    0.        0.        1.22511 
 8                     0.       -2.07638  -1.16776 
 8                     2.07582   0.00032   1.16721 
 6                    -2.68026  -0.00915   0. 
 8                     0.       -2.07638   1.16776 
 8                    -2.07582  -0.00032   1.16721 
 8                     0.        0.        3.5002 
 6                     0.00861  -2.67944   0. 
 6                    -4.19827  -0.06252   0. 
 6                     0.06098  -4.1978    0. 
 1                     1.11672  -4.52826   0. 
 1                    -0.42473  -4.59339  -0.90624 
 1                    -0.42473  -4.59339   0.90624 
 1                    -4.52827  -1.11839   0. 
 1                    -4.5948    0.42355  -0.90562 
 1                    -4.5948    0.42355   0.90562 
 1                    -0.82155  -0.00476   4.03734 
 1                     0.82155   0.00476   4.03734 
 1                     0.82155   0.00476  -4.03734 
 1                    -0.82155  -0.00476  -4.03734 
 
 NAtoms=     36 NQM=     36 NQMF=      0 NMic=      0 NMicF=      0 NTot=     36.
                    Isotopes and Nuclear Properties:
 (Nuclear quadrupole moments (NQMom) in fm**2, nuclear magnetic moments (NMagM)
  in nuclear magnetons)

  Atom         1           2           3           4           5           6           7           8           9          10
 IAtWgt=          12          12          12          12           1           1           1           1           1           1
 AtmWgt=  12.0000000  12.0000000  12.0000000  12.0000000   1.0078250   1.0078250   1.0078250   1.0078250   1.0078250   1.0078250
 NucSpn=           0           0           0           0           1           1           1           1           1           1
 AtZEff=   0.0000000   0.0000000   0.0000000   0.0000000   0.0000000   0.0000000   0.0000000   0.0000000   0.0000000   0.0000000
 NQMom=    0.0000000   0.0000000   0.0000000   0.0000000   0.0000000   0.0000000   0.0000000   0.0000000   0.0000000   0.0000000
 NMagM=    0.0000000   0.0000000   0.0000000   0.0000000   2.7928460   2.7928460   2.7928460   2.7928460   2.7928460   2.7928460

  Atom        11          12          13          14          15          16          17          18          19          20
 IAtWgt=          16          16          16          16          16         103         103          16          16          12
 AtmWgt=  15.9949146  15.9949146  15.9949146  15.9949146  15.9949146 102.9048000 102.9048000  15.9949146  15.9949146  12.0000000
 NucSpn=           0           0           0           0           0           1           1           0           0           0
 AtZEff=   0.0000000   0.0000000   0.0000000   0.0000000   0.0000000   0.0000000   0.0000000   0.0000000   0.0000000   0.0000000
 NQMom=    0.0000000   0.0000000   0.0000000   0.0000000   0.0000000   0.0000000   0.0000000   0.0000000   0.0000000   0.0000000
 NMagM=    0.0000000   0.0000000   0.0000000   0.0000000   0.0000000  -0.0884000  -0.0884000   0.0000000   0.0000000   0.0000000

  Atom        21          22          23          24          25          26          27          28          29          30
 IAtWgt=          16          16          16          12          12          12           1           1           1           1
 AtmWgt=  15.9949146  15.9949146  15.9949146  12.0000000  12.0000000  12.0000000   1.0078250   1.0078250   1.0078250   1.0078250
 NucSpn=           0           0           0           0           0           0           1           1           1           1
 AtZEff=   0.0000000   0.0000000   0.0000000   0.0000000   0.0000000   0.0000000   0.0000000   0.0000000   0.0000000   0.0000000
 NQMom=    0.0000000   0.0000000   0.0000000   0.0000000   0.0000000   0.0000000   0.0000000   0.0000000   0.0000000   0.0000000
 NMagM=    0.0000000   0.0000000   0.0000000   0.0000000   0.0000000   0.0000000   2.7928460   2.7928460   2.7928460   2.7928460

  Atom        31          32          33          34          35          36
 IAtWgt=           1           1           1           1           1           1
 AtmWgt=   1.0078250   1.0078250   1.0078250   1.0078250   1.0078250   1.0078250
 NucSpn=           1           1           1           1           1           1
 AtZEff=   0.0000000   0.0000000   0.0000000   0.0000000   0.0000000   0.0000000
 NQMom=    0.0000000   0.0000000   0.0000000   0.0000000   0.0000000   0.0000000
 NMagM=    2.7928460   2.7928460   2.7928460   2.7928460   2.7928460   2.7928460
 Leave Link  101 at Sun Nov 24 22:03:48 2013, MaxMem=   33554432 cpu:       0.1
 (Enter /net/cottusp/opt/gaussian/g09revA02_amd64/g09/l103.exe)

 GradGradGradGradGradGradGradGradGradGradGradGradGradGradGradGradGradGrad
 Berny optimization.
 Initialization pass.
                           ----------------------------
                           !    Initial Parameters    !
                           ! (Angstroms and Degrees)  !
 --------------------------                            --------------------------
 ! Name  Definition              Value          Derivative Info.                !
 --------------------------------------------------------------------------------
 ! R1    R(1,2)                  1.5193         estimate D2E/DX2                !
 ! R2    R(1,11)                 1.3143         estimate D2E/DX2                !
 ! R3    R(1,12)                 1.3143         estimate D2E/DX2                !
 ! R4    R(2,5)                  1.1062         estimate D2E/DX2                !
 ! R5    R(2,6)                  1.1017         estimate D2E/DX2                !
 ! R6    R(2,7)                  1.1017         estimate D2E/DX2                !
 ! R7    R(3,4)                  1.5189         estimate D2E/DX2                !
 ! R8    R(3,13)                 1.3145         estimate D2E/DX2                !
 ! R9    R(3,19)                 1.3145         estimate D2E/DX2                !
 ! R10   R(4,8)                  1.1062         estimate D2E/DX2                !
 ! R11   R(4,9)                  1.1017         estimate D2E/DX2                !
 ! R12   R(4,10)                 1.1017         estimate D2E/DX2                !
 ! R13   R(11,16)                2.0772         estimate D2E/DX2                !
 ! R14   R(12,17)                2.0772         estimate D2E/DX2                !
 ! R15   R(13,16)                2.0766         estimate D2E/DX2                !
 ! R16   R(14,16)                2.0766         estimate D2E/DX2                !
 ! R17   R(14,20)                1.3145         estimate D2E/DX2                !
 ! R18   R(15,16)                2.2751         estimate D2E/DX2                !
 ! R19   R(15,35)                0.9816         estimate D2E/DX2                !
 ! R20   R(15,36)                0.9816         estimate D2E/DX2                !
 ! R21   R(16,17)                2.4502         estimate D2E/DX2                !
 ! R22   R(16,18)                2.0772         estimate D2E/DX2                !
 ! R23   R(17,19)                2.0766         estimate D2E/DX2                !
 ! R24   R(17,21)                2.0772         estimate D2E/DX2                !
 ! R25   R(17,22)                2.0766         estimate D2E/DX2                !
 ! R26   R(17,23)                2.2751         estimate D2E/DX2                !
 ! R27   R(18,24)                1.3143         estimate D2E/DX2                !
 ! R28   R(20,22)                1.3145         estimate D2E/DX2                !
 ! R29   R(20,25)                1.5189         estimate D2E/DX2                !
 ! R30   R(21,24)                1.3143         estimate D2E/DX2                !
 ! R31   R(23,33)                0.9816         estimate D2E/DX2                !
 ! R32   R(23,34)                0.9816         estimate D2E/DX2                !
 ! R33   R(24,26)                1.5193         estimate D2E/DX2                !
 ! R34   R(25,30)                1.1062         estimate D2E/DX2                !
 ! R35   R(25,31)                1.1017         estimate D2E/DX2                !
 ! R36   R(25,32)                1.1017         estimate D2E/DX2                !
 ! R37   R(26,27)                1.1062         estimate D2E/DX2                !
 ! R38   R(26,28)                1.1017         estimate D2E/DX2                !
 ! R39   R(26,29)                1.1017         estimate D2E/DX2                !
 ! A1    A(2,1,11)             117.3094         estimate D2E/DX2                !
 ! A2    A(2,1,12)             117.3094         estimate D2E/DX2                !
 ! A3    A(11,1,12)            125.3691         estimate D2E/DX2                !
 ! A4    A(1,2,5)              109.3565         estimate D2E/DX2                !
 ! A5    A(1,2,6)              110.1006         estimate D2E/DX2                !
 ! A6    A(1,2,7)              110.1006         estimate D2E/DX2                !
 ! A7    A(5,2,6)              108.2697         estimate D2E/DX2                !
 ! A8    A(5,2,7)              108.2697         estimate D2E/DX2                !
 ! A9    A(6,2,7)              110.6928         estimate D2E/DX2                !
 ! A10   A(4,3,13)             117.3737         estimate D2E/DX2                !
 ! A11   A(4,3,19)             117.3737         estimate D2E/DX2                !
 ! A12   A(13,3,19)            125.24           estimate D2E/DX2                !
 ! A13   A(3,4,8)              109.3701         estimate D2E/DX2                !
 ! A14   A(3,4,9)              110.1339         estimate D2E/DX2                !
 ! A15   A(3,4,10)             110.1339         estimate D2E/DX2                !
 ! A16   A(8,4,9)              108.2855         estimate D2E/DX2                !
 ! A17   A(8,4,10)             108.2855         estimate D2E/DX2                !
 ! A18   A(9,4,10)             110.5814         estimate D2E/DX2                !
 ! A19   A(1,11,16)            118.8946         estimate D2E/DX2                !
 ! A20   A(1,12,17)            118.8946         estimate D2E/DX2                !
 ! A21   A(3,13,16)            118.9746         estimate D2E/DX2                !
 ! A22   A(16,14,20)           118.9746         estimate D2E/DX2                !
 ! A23   A(16,15,35)           123.1771         estimate D2E/DX2                !
 ! A24   A(16,15,36)           123.1771         estimate D2E/DX2                !
 ! A25   A(35,15,36)           113.6458         estimate D2E/DX2                !
 ! A26   A(11,16,13)            89.9471         estimate D2E/DX2                !
 ! A27   A(11,16,14)            89.9647         estimate D2E/DX2                !
 ! A28   A(11,16,15)            91.5822         estimate D2E/DX2                !
 ! A29   A(11,16,17)            88.4178         estimate D2E/DX2                !
 ! A30   A(13,16,15)            91.5978         estimate D2E/DX2                !
 ! A31   A(13,16,17)            88.4022         estimate D2E/DX2                !
 ! A32   A(13,16,18)            89.9647         estimate D2E/DX2                !
 ! A33   A(14,16,15)            91.5978         estimate D2E/DX2                !
 ! A34   A(14,16,17)            88.4022         estimate D2E/DX2                !
 ! A35   A(14,16,18)            89.9471         estimate D2E/DX2                !
 ! A36   A(15,16,18)            91.5822         estimate D2E/DX2                !
 ! A37   A(17,16,18)            88.4178         estimate D2E/DX2                !
 ! A38   A(12,17,16)            88.4178         estimate D2E/DX2                !
 ! A39   A(12,17,19)            89.9471         estimate D2E/DX2                !
 ! A40   A(12,17,22)            89.9647         estimate D2E/DX2                !
 ! A41   A(12,17,23)            91.5822         estimate D2E/DX2                !
 ! A42   A(16,17,19)            88.4022         estimate D2E/DX2                !
 ! A43   A(16,17,21)            88.4178         estimate D2E/DX2                !
 ! A44   A(16,17,22)            88.4022         estimate D2E/DX2                !
 ! A45   A(19,17,21)            89.9647         estimate D2E/DX2                !
 ! A46   A(19,17,23)            91.5978         estimate D2E/DX2                !
 ! A47   A(21,17,22)            89.9471         estimate D2E/DX2                !
 ! A48   A(21,17,23)            91.5822         estimate D2E/DX2                !
 ! A49   A(22,17,23)            91.5978         estimate D2E/DX2                !
 ! A50   A(16,18,24)           118.8946         estimate D2E/DX2                !
 ! A51   A(3,19,17)            118.9746         estimate D2E/DX2                !
 ! A52   A(14,20,22)           125.24           estimate D2E/DX2                !
 ! A53   A(14,20,25)           117.3737         estimate D2E/DX2                !
 ! A54   A(22,20,25)           117.3737         estimate D2E/DX2                !
 ! A55   A(17,21,24)           118.8946         estimate D2E/DX2                !
 ! A56   A(17,22,20)           118.9746         estimate D2E/DX2                !
 ! A57   A(17,23,33)           123.1771         estimate D2E/DX2                !
 ! A58   A(17,23,34)           123.1771         estimate D2E/DX2                !
 ! A59   A(33,23,34)           113.6458         estimate D2E/DX2                !
 ! A60   A(18,24,21)           125.3691         estimate D2E/DX2                !
 ! A61   A(18,24,26)           117.3094         estimate D2E/DX2                !
 ! A62   A(21,24,26)           117.3094         estimate D2E/DX2                !
 ! A63   A(20,25,30)           109.3701         estimate D2E/DX2                !
 ! A64   A(20,25,31)           110.1339         estimate D2E/DX2                !
 ! A65   A(20,25,32)           110.1339         estimate D2E/DX2                !
 ! A66   A(30,25,31)           108.2855         estimate D2E/DX2                !
 ! A67   A(30,25,32)           108.2855         estimate D2E/DX2                !
 ! A68   A(31,25,32)           110.5814         estimate D2E/DX2                !
 ! A69   A(24,26,27)           109.3565         estimate D2E/DX2                !
 ! A70   A(24,26,28)           110.1006         estimate D2E/DX2                !
 ! A71   A(24,26,29)           110.1006         estimate D2E/DX2                !
 ! A72   A(27,26,28)           108.2697         estimate D2E/DX2                !
 ! A73   A(27,26,29)           108.2697         estimate D2E/DX2                !
 ! A74   A(28,26,29)           110.6928         estimate D2E/DX2                !
 ! D1    D(11,1,2,5)            89.402          estimate D2E/DX2                !
 ! D2    D(11,1,2,6)          -151.7566         estimate D2E/DX2                !
 ! D3    D(11,1,2,7)           -29.4394         estimate D2E/DX2                !
 ! D4    D(12,1,2,5)           -89.402          estimate D2E/DX2                !
 ! D5    D(12,1,2,6)            29.4394         estimate D2E/DX2                !
 ! D6    D(12,1,2,7)           151.7566         estimate D2E/DX2                !
 ! D7    D(2,1,11,16)         -177.7632         estimate D2E/DX2                !
 ! D8    D(12,1,11,16)           0.9336         estimate D2E/DX2                !
 ! D9    D(2,1,12,17)          177.7632         estimate D2E/DX2                !
 ! D10   D(11,1,12,17)          -0.9336         estimate D2E/DX2                !
 ! D11   D(13,3,4,8)            89.3904         estimate D2E/DX2                !
 ! D12   D(13,3,4,9)          -151.7205         estimate D2E/DX2                !
 ! D13   D(13,3,4,10)          -29.4987         estimate D2E/DX2                !
 ! D14   D(19,3,4,8)           -89.3904         estimate D2E/DX2                !
 ! D15   D(19,3,4,9)            29.4987         estimate D2E/DX2                !
 ! D16   D(19,3,4,10)          151.7205         estimate D2E/DX2                !
 ! D17   D(4,3,13,16)         -177.7285         estimate D2E/DX2                !
 ! D18   D(19,3,13,16)           0.9459         estimate D2E/DX2                !
 ! D19   D(4,3,19,17)          177.7285         estimate D2E/DX2                !
 ! D20   D(13,3,19,17)          -0.9459         estimate D2E/DX2                !
 ! D21   D(1,11,16,13)         -88.8316         estimate D2E/DX2                !
 ! D22   D(1,11,16,14)          87.974          estimate D2E/DX2                !
 ! D23   D(1,11,16,15)         179.5714         estimate D2E/DX2                !
 ! D24   D(1,11,16,17)          -0.4286         estimate D2E/DX2                !
 ! D25   D(1,11,18,24)          -0.8446         estimate D2E/DX2                !
 ! D26   D(1,12,17,16)           0.4286         estimate D2E/DX2                !
 ! D27   D(1,12,17,19)          88.8316         estimate D2E/DX2                !
 ! D28   D(1,12,17,22)         -87.974          estimate D2E/DX2                !
 ! D29   D(1,12,17,23)        -179.5714         estimate D2E/DX2                !
 ! D30   D(1,12,21,24)           0.8446         estimate D2E/DX2                !
 ! D31   D(3,13,16,11)          87.9834         estimate D2E/DX2                !
 ! D32   D(3,13,16,15)         179.5648         estimate D2E/DX2                !
 ! D33   D(3,13,16,17)          -0.4352         estimate D2E/DX2                !
 ! D34   D(3,13,16,18)         -88.8533         estimate D2E/DX2                !
 ! D35   D(20,14,16,11)        -88.8533         estimate D2E/DX2                !
 ! D36   D(20,14,16,15)        179.5648         estimate D2E/DX2                !
 ! D37   D(20,14,16,17)         -0.4352         estimate D2E/DX2                !
 ! D38   D(20,14,16,18)         87.9834         estimate D2E/DX2                !
 ! D39   D(16,14,20,22)          0.9459         estimate D2E/DX2                !
 ! D40   D(16,14,20,25)       -177.7285         estimate D2E/DX2                !
 ! D41   D(35,15,16,11)         89.6683         estimate D2E/DX2                !
 ! D42   D(35,15,16,13)         -0.3229         estimate D2E/DX2                !
 ! D43   D(35,15,16,14)        179.6771         estimate D2E/DX2                !
 ! D44   D(35,15,16,18)        -90.3317         estimate D2E/DX2                !
 ! D45   D(36,15,16,11)        -90.3317         estimate D2E/DX2                !
 ! D46   D(36,15,16,13)        179.6771         estimate D2E/DX2                !
 ! D47   D(36,15,16,14)         -0.3229         estimate D2E/DX2                !
 ! D48   D(36,15,16,18)         89.6683         estimate D2E/DX2                !
 ! D49   D(35,15,17,12)         89.6683         estimate D2E/DX2                !
 ! D50   D(35,15,17,19)         -0.3229         estimate D2E/DX2                !
 ! D51   D(35,15,17,21)        -90.3317         estimate D2E/DX2                !
 ! D52   D(35,15,17,22)        179.6771         estimate D2E/DX2                !
 ! D53   D(36,15,17,12)        -90.3317         estimate D2E/DX2                !
 ! D54   D(36,15,17,19)        179.6771         estimate D2E/DX2                !
 ! D55   D(36,15,17,21)         89.6683         estimate D2E/DX2                !
 ! D56   D(36,15,17,22)         -0.3229         estimate D2E/DX2                !
 ! D57   D(35,15,23,33)        180.0            estimate D2E/DX2                !
 ! D58   D(35,15,23,34)          0.0            estimate D2E/DX2                !
 ! D59   D(36,15,23,33)          0.0            estimate D2E/DX2                !
 ! D60   D(36,15,23,34)        180.0            estimate D2E/DX2                !
 ! D61   D(11,16,17,12)          0.0            estimate D2E/DX2                !
 ! D62   D(11,16,17,19)        -89.9912         estimate D2E/DX2                !
 ! D63   D(11,16,17,21)        180.0            estimate D2E/DX2                !
 ! D64   D(11,16,17,22)         90.0088         estimate D2E/DX2                !
 ! D65   D(13,16,17,12)         89.9912         estimate D2E/DX2                !
 ! D66   D(13,16,17,19)          0.0            estimate D2E/DX2                !
 ! D67   D(13,16,17,21)        -90.0088         estimate D2E/DX2                !
 ! D68   D(13,16,17,22)        180.0            estimate D2E/DX2                !
 ! D69   D(14,16,17,12)        -90.0088         estimate D2E/DX2                !
 ! D70   D(14,16,17,19)        180.0            estimate D2E/DX2                !
 ! D71   D(14,16,17,21)         89.9912         estimate D2E/DX2                !
 ! D72   D(14,16,17,22)          0.0            estimate D2E/DX2                !
 ! D73   D(18,16,17,12)        180.0            estimate D2E/DX2                !
 ! D74   D(18,16,17,19)         90.0088         estimate D2E/DX2                !
 ! D75   D(18,16,17,21)          0.0            estimate D2E/DX2                !
 ! D76   D(18,16,17,22)        -89.9912         estimate D2E/DX2                !
 ! D77   D(13,16,18,24)         87.974          estimate D2E/DX2                !
 ! D78   D(14,16,18,24)        -88.8316         estimate D2E/DX2                !
 ! D79   D(15,16,18,24)        179.5714         estimate D2E/DX2                !
 ! D80   D(17,16,18,24)         -0.4286         estimate D2E/DX2                !
 ! D81   D(11,16,23,33)         90.3317         estimate D2E/DX2                !
 ! D82   D(11,16,23,34)        -89.6683         estimate D2E/DX2                !
 ! D83   D(13,16,23,33)       -179.6771         estimate D2E/DX2                !
 ! D84   D(13,16,23,34)          0.3229         estimate D2E/DX2                !
 ! D85   D(14,16,23,33)          0.3229         estimate D2E/DX2                !
 ! D86   D(14,16,23,34)       -179.6771         estimate D2E/DX2                !
 ! D87   D(18,16,23,33)        -89.6683         estimate D2E/DX2                !
 ! D88   D(18,16,23,34)         90.3317         estimate D2E/DX2                !
 ! D89   D(12,17,19,3)         -87.9834         estimate D2E/DX2                !
 ! D90   D(16,17,19,3)           0.4352         estimate D2E/DX2                !
 ! D91   D(21,17,19,3)          88.8533         estimate D2E/DX2                !
 ! D92   D(23,17,19,3)        -179.5648         estimate D2E/DX2                !
 ! D93   D(3,19,22,20)           0.8575         estimate D2E/DX2                !
 ! D94   D(16,17,21,24)          0.4286         estimate D2E/DX2                !
 ! D95   D(19,17,21,24)        -87.974          estimate D2E/DX2                !
 ! D96   D(22,17,21,24)         88.8316         estimate D2E/DX2                !
 ! D97   D(23,17,21,24)       -179.5714         estimate D2E/DX2                !
 ! D98   D(12,17,22,20)         88.8533         estimate D2E/DX2                !
 ! D99   D(16,17,22,20)          0.4352         estimate D2E/DX2                !
 ! D100  D(21,17,22,20)        -87.9834         estimate D2E/DX2                !
 ! D101  D(23,17,22,20)       -179.5648         estimate D2E/DX2                !
 ! D102  D(12,17,23,33)         90.3317         estimate D2E/DX2                !
 ! D103  D(12,17,23,34)        -89.6683         estimate D2E/DX2                !
 ! D104  D(19,17,23,33)       -179.6771         estimate D2E/DX2                !
 ! D105  D(19,17,23,34)          0.3229         estimate D2E/DX2                !
 ! D106  D(21,17,23,33)        -89.6683         estimate D2E/DX2                !
 ! D107  D(21,17,23,34)         90.3317         estimate D2E/DX2                !
 ! D108  D(22,17,23,33)          0.3229         estimate D2E/DX2                !
 ! D109  D(22,17,23,34)       -179.6771         estimate D2E/DX2                !
 ! D110  D(16,18,24,21)          0.9336         estimate D2E/DX2                !
 ! D111  D(16,18,24,26)       -177.7632         estimate D2E/DX2                !
 ! D112  D(14,20,22,17)         -0.9459         estimate D2E/DX2                !
 ! D113  D(25,20,22,17)        177.7285         estimate D2E/DX2                !
 ! D114  D(14,20,25,30)         89.3904         estimate D2E/DX2                !
 ! D115  D(14,20,25,31)        -29.4987         estimate D2E/DX2                !
 ! D116  D(14,20,25,32)       -151.7205         estimate D2E/DX2                !
 ! D117  D(22,20,25,30)        -89.3904         estimate D2E/DX2                !
 ! D118  D(22,20,25,31)        151.7205         estimate D2E/DX2                !
 ! D119  D(22,20,25,32)         29.4987         estimate D2E/DX2                !
 ! D120  D(17,21,24,18)         -0.9336         estimate D2E/DX2                !
 ! D121  D(17,21,24,26)        177.7632         estimate D2E/DX2                !
 ! D122  D(18,24,26,27)         89.402          estimate D2E/DX2                !
 ! D123  D(18,24,26,28)        -29.4394         estimate D2E/DX2                !
 ! D124  D(18,24,26,29)       -151.7566         estimate D2E/DX2                !
 ! D125  D(21,24,26,27)        -89.402          estimate D2E/DX2                !
 ! D126  D(21,24,26,28)        151.7566         estimate D2E/DX2                !
 ! D127  D(21,24,26,29)         29.4394         estimate D2E/DX2                !
 --------------------------------------------------------------------------------
 Trust Radius=3.00D-01 FncErr=1.00D-07 GrdErr=1.00D-06
 Number of steps in this run= 216 maximum allowed number of steps= 216.
 GradGradGradGradGradGradGradGradGradGradGradGradGradGradGradGradGradGrad

 Leave Link  103 at Sun Nov 24 22:03:48 2013, MaxMem=   33554432 cpu:       0.0
 (Enter /net/cottusp/opt/gaussian/g09revA02_amd64/g09/l202.exe)
                          Input orientation:                          
 ---------------------------------------------------------------------
 Center     Atomic      Atomic             Coordinates (Angstroms)
 Number     Number       Type             X           Y           Z
 ---------------------------------------------------------------------
      1          6           0       -0.008607    2.679440    0.000000
      2          6           0       -0.060983    4.197799    0.000000
      3          6           0        2.680261    0.009146    0.000000
      4          6           0        4.198268    0.062521    0.000000
      5          1           0       -1.116715    4.528258    0.000000
      6          1           0        0.424727    4.593388    0.906235
      7          1           0        0.424727    4.593388   -0.906235
      8          1           0        4.528273    1.118388    0.000000
      9          1           0        4.594801   -0.423549    0.905619
     10          1           0        4.594801   -0.423549   -0.905619
     11          8           0        0.000000    2.076379   -1.167756
     12          8           0        0.000000    2.076379    1.167756
     13          8           0        2.075820    0.000319   -1.167207
     14          8           0       -2.075820   -0.000319   -1.167207
     15          8           0        0.000000    0.000000   -3.500195
     16         45           0        0.000000    0.000000   -1.225110
     17         45           0        0.000000    0.000000    1.225110
     18          8           0        0.000000   -2.076379   -1.167756
     19          8           0        2.075820    0.000319    1.167207
     20          6           0       -2.680261   -0.009146    0.000000
     21          8           0        0.000000   -2.076379    1.167756
     22          8           0       -2.075820   -0.000319    1.167207
     23          8           0        0.000000    0.000000    3.500195
     24          6           0        0.008607   -2.679440    0.000000
     25          6           0       -4.198268   -0.062521    0.000000
     26          6           0        0.060983   -4.197799    0.000000
     27          1           0        1.116715   -4.528258    0.000000
     28          1           0       -0.424727   -4.593388   -0.906235
     29          1           0       -0.424727   -4.593388    0.906235
     30          1           0       -4.528273   -1.118388    0.000000
     31          1           0       -4.594801    0.423549   -0.905619
     32          1           0       -4.594801    0.423549    0.905619
     33          1           0       -0.821551   -0.004756    4.037343
     34          1           0        0.821551    0.004756    4.037343
     35          1           0        0.821551    0.004756   -4.037343
     36          1           0       -0.821551   -0.004756   -4.037343
 ---------------------------------------------------------------------
                    Distance matrix (angstroms):
                    1          2          3          4          5
     1  C    0.000000
     2  C    1.519262   0.000000
     3  C    3.789523   5.005920   0.000000
     4  C    4.954398   5.936476   1.518945   0.000000
     5  H    2.155465   1.106243   5.902491   6.942035   0.000000
     6  H    2.161536   1.101665   5.188831   5.965704   1.789287
     7  H    2.161536   1.101665   5.188831   5.965704   1.789287
     8  H    4.797933   5.526667   2.155358   1.106236   6.594930
     9  H    5.624949   6.622185   2.161674   1.101657   7.613275
    10  H    5.624949   6.622185   2.161674   1.101657   7.613275
    11  O    1.314310   2.422353   3.580629   4.800493   2.936395
    12  O    1.314310   2.422353   3.580629   4.800493   2.936395
    13  O    3.589554   4.852539   1.314458   2.423020   5.661880
    14  O    3.580063   4.800639   4.897220   6.382045   4.773915
    15  O    4.408042   5.465949   4.408543   5.466327   5.831255
    16  Rh   2.946246   4.373343   2.946995   4.373815   4.822143
    17  Rh   2.946246   4.373343   2.946995   4.373815   4.822143
    18  O    4.897095   6.382216   3.591221   4.854277   6.799407
    19  O    3.589554   4.852539   1.314458   2.423020   5.661880
    20  C    3.790281   4.955704   5.360553   6.878902   4.799241
    21  O    4.897095   6.382216   3.591221   4.854277   6.799407
    22  O    3.580063   4.800639   4.897220   6.382045   4.773915
    23  O    4.408042   5.465949   4.408543   5.466327   5.831255
    24  C    5.358908   6.877591   3.790281   5.007156   7.295016
    25  C    5.007156   5.938641   6.878902   8.397467   5.529125
    26  C    6.877591   8.396484   4.955704   5.938641   8.805171
    27  H    7.295016   8.805171   4.799241   5.529125   9.327845
    28  H    7.340875   8.845255   5.625436   6.623506   9.192635
    29  H    7.340875   8.845255   5.625436   6.623506   9.192635
    30  H    5.903463   6.943956   7.296184   8.806081   6.597222
    31  H    5.190604   5.968301   7.342915   8.846951   5.455810
    32  H    5.190604   5.968301   7.342915   8.846951   5.455810
    33  H    4.915885   5.877080   5.344438   6.442301   6.077456
    34  H    4.913577   5.887327   4.444655   5.263620   6.365460
    35  H    4.913577   5.887327   4.444655   5.263620   6.365460
    36  H    4.915885   5.877080   5.344438   6.442301   6.077456
                    6          7          8          9         10
     6  H    0.000000
     7  H    1.812470   0.000000
     8  H    5.453070   5.453070   0.000000
     9  H    6.523739   6.770671   1.789453   0.000000
    10  H    6.770671   6.523739   1.789453   1.811238   0.000000
    11  O    3.288946   2.565954   4.773537   5.626786   5.237418
    12  O    2.565954   3.288946   4.773537   5.237418   5.626786
    13  O    5.302976   4.887791   2.937171   3.289610   2.567753
    14  O    5.626192   5.236696   6.799112   6.998065   6.689151
    15  O    6.379360   5.292281   5.831588   6.379874   5.293715
    16  Rh   5.081559   4.623990   4.822545   5.082479   4.625329
    17  Rh   4.623990   5.081559   4.822545   4.625329   5.082479
    18  O    6.997687   6.688391   5.663519   5.304991   4.890067
    19  O    4.887791   5.302976   2.937171   2.567753   3.289610
    20  C    5.625436   5.625436   7.296184   7.342915   7.342915
    21  O    6.688391   6.997687   5.663519   4.890067   5.304991
    22  O    5.236696   5.626192   6.799112   6.689151   6.998065
    23  O    5.292281   6.379360   5.831588   5.293715   6.379874
    24  C    7.340875   7.340875   5.903463   5.190604   5.190604
    25  C    6.623506   6.623506   8.806081   8.846951   8.846951
    26  C    8.845255   8.845255   6.943956   5.968301   5.968301
    27  H    9.192635   9.192635   6.597222   5.455810   5.455810
    28  H    9.402312   9.225965   7.614319   6.772447   6.525582
    29  H    9.225965   9.402312   7.614319   6.525582   6.772447
    30  H    7.614319   7.614319   9.328676   9.194206   9.194206
    31  H    6.772447   6.525582   9.194206   9.404623   9.228562
    32  H    6.525582   6.772447   9.194206   9.228562   9.404623
    33  H    5.700875   6.865501   6.795749   6.270562   7.344735
    34  H    5.569277   6.756625   5.592862   4.922251   6.233276
    35  H    6.756625   5.569277   5.592862   6.233276   4.922251
    36  H    6.865501   5.700875   6.795749   7.344735   6.270562
                   11         12         13         14         15
    11  O    0.000000
    12  O    2.335512   0.000000
    13  O    2.935823   3.751147   0.000000
    14  O    2.936274   3.751500   4.151640   0.000000
    15  O    3.122759   5.108925   3.122797   3.122797   0.000000
    16  Rh   2.077171   3.168147   2.076627   2.076627   2.275085
    17  Rh   3.168147   2.077171   3.167366   3.167366   4.725305
    18  O    4.152758   4.764453   2.936274   2.935823   3.122759
    19  O    3.751147   2.935823   2.334414   4.762941   5.108196
    20  C    3.591221   3.591221   4.897220   1.314458   4.408543
    21  O    4.764453   4.152758   3.751500   3.751147   5.108925
    22  O    3.751500   2.936274   4.762941   2.334414   5.108196
    23  O    5.108925   3.122759   5.108196   5.108196   7.000390
    24  C    4.897095   4.897095   3.580063   3.589554   4.408042
    25  C    4.854277   4.854277   6.382045   2.423020   5.466327
    26  C    6.382216   6.382216   4.800639   4.852539   5.465949
    27  H    6.799407   6.799407   4.773915   5.661880   5.831255
    28  H    6.688391   6.997687   5.236696   4.887791   5.292281
    29  H    6.997687   6.688391   5.626192   5.302976   6.379360
    30  H    5.663519   5.663519   6.799112   2.937171   5.831588
    31  H    4.890067   5.304991   6.689151   2.567753   5.293715
    32  H    5.304991   4.890067   6.998065   3.289610   6.379874
    33  H    5.665609   3.638763   5.956687   5.353555   7.582180
    34  H    5.662122   3.633331   5.353555   5.956687   7.582180
    35  H    3.633331   5.662122   3.132234   4.078292   0.981579
    36  H    3.638763   5.665609   4.078292   3.132234   0.981579
                   16         17         18         19         20
    16  Rh   0.000000
    17  Rh   2.450220   0.000000
    18  O    2.077171   3.168147   0.000000
    19  O    3.167366   2.076627   3.751500   0.000000
    20  C    2.946995   2.946995   3.580629   4.897220   0.000000
    21  O    3.168147   2.077171   2.335512   2.936274   3.580629
    22  O    3.167366   2.076627   3.751147   4.151640   1.314458
    23  O    4.725305   2.275085   5.108925   3.122797   4.408543
    24  C    2.946246   2.946246   1.314310   3.580063   3.789523
    25  C    4.373815   4.373815   4.800493   6.382045   1.518945
    26  C    4.373343   4.373343   2.422353   4.800639   5.005920
    27  H    4.822143   4.822143   2.936395   4.773915   5.902491
    28  H    4.623990   5.081559   2.565954   5.626192   5.188831
    29  H    5.081559   4.623990   3.288946   5.236696   5.188831
    30  H    4.822545   4.822545   4.773537   6.799112   2.155358
    31  H    4.625329   5.082479   5.237418   6.998065   2.161674
    32  H    5.082479   4.625329   5.626786   6.689151   2.161674
    33  H    5.326198   2.929782   5.662122   4.078292   4.444655
    34  H    5.326198   2.929782   5.665609   3.132234   5.344438
    35  H    2.929782   5.326198   3.638763   5.353555   5.344438
    36  H    2.929782   5.326198   3.633331   5.956687   4.444655
                   21         22         23         24         25
    21  O    0.000000
    22  O    2.935823   0.000000
    23  O    3.122759   3.122797   0.000000
    24  C    1.314310   3.589554   4.408042   0.000000
    25  C    4.800493   2.423020   5.466327   4.954398   0.000000
    26  C    2.422353   4.852539   5.465949   1.519262   5.936476
    27  H    2.936395   5.661880   5.831255   2.155465   6.942035
    28  H    3.288946   5.302976   6.379360   2.161536   5.965704
    29  H    2.565954   4.887791   5.292281   2.161536   5.965704
    30  H    4.773537   2.937171   5.831588   4.797933   1.106236
    31  H    5.626786   3.289610   6.379874   5.624949   1.101657
    32  H    5.237418   2.567753   5.293715   5.624949   1.101657
    33  H    3.633331   3.132234   0.981579   4.913577   5.263620
    34  H    3.638763   4.078292   0.981579   4.915885   6.442301
    35  H    5.665609   5.956687   7.582180   4.915885   6.442301
    36  H    5.662122   5.353555   7.582180   4.913577   5.263620
                   26         27         28         29         30
    26  C    0.000000
    27  H    1.106243   0.000000
    28  H    1.101665   1.789287   0.000000
    29  H    1.101665   1.789287   1.812470   0.000000
    30  H    5.526667   6.594930   5.453070   5.453070   0.000000
    31  H    6.622185   7.613275   6.523739   6.770671   1.789453
    32  H    6.622185   7.613275   6.770671   6.523739   1.789453
    33  H    5.887327   6.365460   6.756625   5.569277   5.592862
    34  H    5.877080   6.077456   6.865501   5.700875   6.795749
    35  H    5.877080   6.077456   5.700875   6.865501   6.795749
    36  H    5.887327   6.365460   5.569277   6.756625   5.592862
                   31         32         33         34         35
    31  H    0.000000
    32  H    1.811238   0.000000
    33  H    6.233276   4.922251   0.000000
    34  H    7.344735   6.270562   1.643130   0.000000
    35  H    6.270562   7.344735   8.240172   8.074686   0.000000
    36  H    4.922251   6.233276   8.074686   8.240172   1.643130
                   36
    36  H    0.000000
 Symmetry turned off by external request.
 Stoichiometry    C8H16O10Rh2
 Framework group  C2H[C2(ORh.RhO),SGH(C8H4),X(H12O8)]
 Deg. of freedom    28
 Full point group                 C2H     NOp   4
 Rotational constants (GHZ):      0.2593926      0.2590107      0.2521354
 Leave Link  202 at Sun Nov 24 22:03:48 2013, MaxMem=   33554432 cpu:       0.0
 (Enter /net/cottusp/opt/gaussian/g09revA02_amd64/g09/l301.exe)
 Standard basis: LANL2DZ (5D, 7F)
 Ernie: Thresh=  0.10000D-02 Tol=  0.10000D-05 Strict=F.
 Ernie:  2 primitive shells out of 370 were deleted.
 Integral buffers will be    131072 words long.
 Raffenetti 2 integral format.
 Two-electron integral symmetry is turned off.
   238 basis functions,   612 primitive gaussians,   242 cartesian basis functions
    89 alpha electrons       89 beta electrons
       nuclear repulsion energy      2357.7434137355 Hartrees.
 IExCor=  404 DFT=T Ex=B Corr=P86 ExCW=0 ScaHFX=  0.000000
 ScaDFX=  1.000000  1.000000  1.000000  1.000000 ScalE2=  1.000000  1.000000
 IRadAn=      5 IRanWt=     -1 IRanGd=            0 ICorTp=0
 NAtoms=   36 NActive=   36 NUniq=   36 SFac= 7.50D-01 NAtFMM=   80 NAOKFM=F Big=F
 Leave Link  301 at Sun Nov 24 22:03:49 2013, MaxMem=   33554432 cpu:       0.1
 (Enter /net/cottusp/opt/gaussian/g09revA02_amd64/g09/l302.exe)
 NPDir=0 NMtPBC=     1 NCelOv=     1 NCel=       1 NClECP=     1 NCelD=      1
         NCelK=      1 NCelE2=     1 NClLst=     1 CellRange=     0.0.
 One-electron integrals computed using PRISM.
   1 Symmetry operations used in ECPInt.
 ECPInt:  NShTT=    9591 NPrTT=   68474 LenC2=    9087 LenP2D=   38378.
 LDataN:  DoStor=T MaxTD1= 5 Len=  102
 NBasis=   238 RedAO= T  NBF=   238
 NBsUse=   238 1.00D-06 NBFU=   238
 Precomputing XC quadrature grid using
 IXCGrd= 2 IRadAn=           5 IRanWt=          -1 IRanGd=           0 AccXCQ= 1.00D-10.
 Defaulting to unpruned grid for atomic number  45.
 NRdTot=    3098 NPtTot=      879952 NUsed=      902119 NTot=      902151
 NSgBfM=   242   242   242   242   242 NAtAll=    36    36.
 Leave Link  302 at Sun Nov 24 22:03:53 2013, MaxMem=   33554432 cpu:       8.4
 (Enter /net/cottusp/opt/gaussian/g09revA02_amd64/g09/l303.exe)
 DipDrv:  MaxL=1.
 Leave Link  303 at Sun Nov 24 22:03:53 2013, MaxMem=   33554432 cpu:       0.2
 (Enter /net/cottusp/opt/gaussian/g09revA02_amd64/g09/l401.exe)
 Harris functional with IExCor=  404 diagonalized for initial guess.
 ExpMin= 2.57D-02 ExpMax= 7.82D+03 ExpMxC= 2.73D+02 IAcc=3 IRadAn=         5 AccDes= 0.00D+00
 HarFok:  IExCor=  404 AccDes= 0.00D+00 IRadAn=         5 IDoV= 1
 ScaDFX=  1.000000  1.000000  1.000000  1.000000
 Defaulting to unpruned grid for atomic number  45.
 Defaulting to unpruned grid for atomic number  45.
 FoFCou: FMM=F IPFlag=           0 FMFlag=      100000 FMFlg1=           0
         NFxFlg=           0 DoJE=T BraDBF=F KetDBF=T FulRan=T
         Omega=  0.000000  0.000000  1.000000  0.000000  0.000000 ICntrl=     500 IOpCl=  0
         NMat0=    1 NMatS0=    1 NMatT0=    0 NMatD0=    1 NMtDS0=    0 NMtDT0=    0
         I1Cent=           4 NGrid=           0.
 Symmetry not used in FoFCou.
 Harris En= -1295.48890178722    
 Leave Link  401 at Sun Nov 24 22:04:07 2013, MaxMem=   33554432 cpu:      27.6
 (Enter /net/cottusp/opt/gaussian/g09revA02_amd64/g09/l502.exe)
 Closed shell SCF:
 Requested convergence on RMS density matrix=1.00D-08 within 128 cycles.
 Requested convergence on MAX density matrix=1.00D-06.
 Requested convergence on             energy=1.00D-06.
 No special actions if energy rises.
 Using DIIS extrapolation, IDIIS=  1040.
 Two-electron integral symmetry not used.
       901782 words used for storage of precomputed grid.
 IEnd=     1098596 IEndB=     1098596 NGot=    33554432 MDV=    32531283
 LenX=    32531283 LenY=    32472278
 Fock matrices will be formed incrementally for  20 cycles.

 Cycle   1  Pass 1  IDiag  1:
 FoFCou: FMM=F IPFlag=           0 FMFlag=      100000 FMFlg1=           0
         NFxFlg=           0 DoJE=T BraDBF=F KetDBF=F FulRan=T
         Omega=  0.000000  0.000000  1.000000  0.000000  0.000000 ICntrl=     500 IOpCl=  0
         NMat0=    1 NMatS0=    1 NMatT0=    0 NMatD0=    1 NMtDS0=    0 NMtDT0=    0
         I1Cent=           0 NGrid=           0.
 Symmetry not used in FoFCou.
 Defaulting to unpruned grid for atomic number  45.
 Defaulting to unpruned grid for atomic number  45.
 E= -1273.34141512025    
 DIIS: error= 3.75D-01 at cycle   1 NSaved=   1.
 NSaved= 1 IEnMin= 1 EnMin= -1273.34141512025     IErMin= 1 ErrMin= 3.75D-01
 ErrMax= 3.75D-01 EMaxC= 1.00D-01 BMatC= 8.91D+00 BMatP= 8.91D+00
 IDIUse=3 WtCom= 0.00D+00 WtEn= 1.00D+00
 Coeff-Com:  0.100D+01
 Coeff-En:   0.100D+01
 Coeff:      0.100D+01
 Gap=    -0.396 Goal=   None    Shift=    0.000
 GapD=   -0.396 DampG=0.250 DampE=0.125 DampFc=0.1250 IDamp=-1.
 Damping current iteration by 1.25D-01
 RMSDP=9.88D-02 MaxDP=5.81D+00              OVMax= 9.16D-01

 Cycle   2  Pass 1  IDiag  1:
 RMSU=  8.72D-03    CP:  9.79D-01
 E= -1277.67624799502     Delta-E=       -4.334832874777 Rises=F Damp=T
 DIIS: error= 2.19D-01 at cycle   2 NSaved=   2.
 NSaved= 2 IEnMin= 2 EnMin= -1277.67624799502     IErMin= 2 ErrMin= 2.19D-01
 ErrMax= 2.19D-01 EMaxC= 1.00D-01 BMatC= 3.66D+00 BMatP= 8.91D+00
 IDIUse=3 WtCom= 0.00D+00 WtEn= 1.00D+00
 Coeff-Com: -0.154D+01 0.254D+01
 Coeff-En:   0.000D+00 0.100D+01
 Coeff:      0.000D+00 0.100D+01
 Gap=     0.086 Goal=   None    Shift=    0.000
 RMSDP=3.23D-02 MaxDP=1.25D+00 DE=-4.33D+00 OVMax= 8.54D-01

 Cycle   3  Pass 1  IDiag  1:
 RMSU=  1.56D-02    CP:  7.85D-01  2.84D+00
 E= -1265.01438714536     Delta-E=       12.661860849669 Rises=F Damp=F
 DIIS: error= 2.16D-01 at cycle   3 NSaved=   3.
 NSaved= 3 IEnMin= 2 EnMin= -1277.67624799502     IErMin= 3 ErrMin= 2.16D-01
 ErrMax= 2.16D-01 EMaxC= 1.00D-01 BMatC= 1.47D+01 BMatP= 3.66D+00
 IDIUse=2 WtCom= 0.00D+00 WtEn= 1.00D+00
 EnCoef did   100 forward-backward iterations
 Coeff-En:   0.576D+00 0.521D-02 0.419D+00
 Coeff:      0.576D+00 0.521D-02 0.419D+00
 Gap=     0.008 Goal=   None    Shift=    0.000
 RMSDP=3.69D-02 MaxDP=1.93D+00 DE= 1.27D+01 OVMax= 7.40D-01

 Cycle   4  Pass 1  IDiag  1:
 RMSU=  9.65D-03    CP:  8.39D-01  2.74D-01  4.14D-01
 E= -1280.24905104792     Delta-E=      -15.234663902565 Rises=F Damp=F
 DIIS: error= 2.17D-01 at cycle   4 NSaved=   4.
 NSaved= 4 IEnMin= 4 EnMin= -1280.24905104792     IErMin= 3 ErrMin= 2.16D-01
 ErrMax= 2.17D-01 EMaxC= 1.00D-01 BMatC= 4.09D+00 BMatP= 3.66D+00
 IDIUse=2 WtCom= 0.00D+00 WtEn= 1.00D+00
 EnCoef did   100 forward-backward iterations
 Coeff-En:   0.363D+00 0.139D-01 0.356D-04 0.623D+00
 Coeff:      0.363D+00 0.139D-01 0.356D-04 0.623D+00
 Gap=    -0.060 Goal=   None    Shift=    0.000
 RMSDP=4.42D-02 MaxDP=2.82D+00 DE=-1.52D+01 OVMax= 9.84D-01

 Cycle   5  Pass 1  IDiag  1:
 RMSU=  2.99D-02    CP:  9.15D-01  8.57D-01  3.16D-01  2.51D-01
 E= -1268.27734232991     Delta-E=       11.971708718015 Rises=F Damp=F
 DIIS: error= 1.96D-01 at cycle   5 NSaved=   5.
 NSaved= 5 IEnMin= 4 EnMin= -1280.24905104792     IErMin= 5 ErrMin= 1.96D-01
 ErrMax= 1.96D-01 EMaxC= 1.00D-01 BMatC= 9.65D+00 BMatP= 3.66D+00
 IDIUse=2 WtCom= 0.00D+00 WtEn= 1.00D+00
 EnCoef did   100 forward-backward iterations
 Coeff-En:   0.325D+00 0.626D-02 0.160D-04 0.540D+00 0.129D+00
 Coeff:      0.325D+00 0.626D-02 0.160D-04 0.540D+00 0.129D+00
 Gap=     0.088 Goal=   None    Shift=    0.000
 RMSDP=4.24D-02 MaxDP=2.70D+00 DE= 1.20D+01 OVMax= 9.89D-01

 Cycle   6  Pass 1  IDiag  1:
 RMSU=  6.25D-03    CP:  8.78D-01  2.11D-01  3.08D-01  5.78D-01  4.35D-02
 E= -1285.66637929293     Delta-E=      -17.389036963029 Rises=F Damp=F
 DIIS: error= 4.94D-02 at cycle   6 NSaved=   6.
 NSaved= 6 IEnMin= 6 EnMin= -1285.66637929293     IErMin= 6 ErrMin= 4.94D-02
 ErrMax= 4.94D-02 EMaxC= 1.00D-01 BMatC= 5.10D-01 BMatP= 3.66D+00
 IDIUse=3 WtCom= 5.06D-01 WtEn= 4.94D-01
 Coeff-Com: -0.372D+00 0.678D+00-0.452D-01 0.157D+00-0.332D-02 0.586D+00
 Coeff-En:   0.000D+00 0.000D+00 0.000D+00 0.436D-01 0.000D+00 0.956D+00
 Coeff:     -0.188D+00 0.343D+00-0.229D-01 0.101D+00-0.168D-02 0.769D+00
 Gap=     0.097 Goal=   None    Shift=    0.000
 RMSDP=4.89D-03 MaxDP=1.55D-01 DE=-1.74D+01 OVMax= 1.65D-01

 Cycle   7  Pass 1  IDiag  1:
 RMSU=  2.56D-03    CP:  8.81D-01  1.74D-01  3.05D-01  6.69D-01  1.46D-02
                    CP:  6.89D-01
 E= -1285.75225710307     Delta-E=       -0.085877810135 Rises=F Damp=F
 DIIS: error= 5.14D-02 at cycle   7 NSaved=   7.
 NSaved= 7 IEnMin= 7 EnMin= -1285.75225710307     IErMin= 6 ErrMin= 4.94D-02
 ErrMax= 5.14D-02 EMaxC= 1.00D-01 BMatC= 4.43D-01 BMatP= 5.10D-01
 IDIUse=3 WtCom= 5.06D-01 WtEn= 4.94D-01
 Coeff-Com: -0.740D-01 0.124D+00-0.666D-02 0.214D-01-0.961D-02 0.496D+00
 Coeff-Com:  0.449D+00
 Coeff-En:   0.000D+00 0.000D+00 0.000D+00 0.000D+00 0.000D+00 0.458D+00
 Coeff-En:   0.542D+00
 Coeff:     -0.375D-01 0.625D-01-0.337D-02 0.108D-01-0.487D-02 0.477D+00
 Coeff:      0.495D+00
 Gap=     0.066 Goal=   None    Shift=    0.000
 RMSDP=2.55D-03 MaxDP=1.09D-01 DE=-8.59D-02 OVMax= 1.01D-01

 Cycle   8  Pass 1  IDiag  1:
 RMSU=  9.95D-04    CP:  8.79D-01  1.91D-01  3.08D-01  6.45D-01  2.25D-02
                    CP:  8.17D-01  5.23D-01
 E= -1286.07280789561     Delta-E=       -0.320550792540 Rises=F Damp=F
 DIIS: error= 1.42D-02 at cycle   8 NSaved=   8.
 NSaved= 8 IEnMin= 8 EnMin= -1286.07280789561     IErMin= 8 ErrMin= 1.42D-02
 ErrMax= 1.42D-02 EMaxC= 1.00D-01 BMatC= 3.53D-02 BMatP= 4.43D-01
 IDIUse=3 WtCom= 8.58D-01 WtEn= 1.42D-01
 Coeff-Com: -0.308D-01 0.516D-01 0.226D-03-0.379D-02-0.326D-02 0.252D+00
 Coeff-Com:  0.323D+00 0.410D+00
 Coeff-En:   0.000D+00 0.000D+00 0.000D+00 0.000D+00 0.000D+00 0.000D+00
 Coeff-En:   0.520D-01 0.948D+00
 Coeff:     -0.264D-01 0.443D-01 0.194D-03-0.325D-02-0.279D-02 0.216D+00
 Coeff:      0.285D+00 0.487D+00
 Gap=     0.067 Goal=   None    Shift=    0.000
 RMSDP=9.64D-04 MaxDP=5.10D-02 DE=-3.21D-01 OVMax= 4.01D-02

 Cycle   9  Pass 1  IDiag  1:
 RMSU=  3.10D-04    CP:  8.78D-01  1.85D-01  3.07D-01  6.41D-01  2.26D-02
                    CP:  8.08D-01  5.82D-01  4.16D-01
 E= -1286.10292456378     Delta-E=       -0.030116668167 Rises=F Damp=F
 DIIS: error= 4.51D-03 at cycle   9 NSaved=   9.
 NSaved= 9 IEnMin= 9 EnMin= -1286.10292456378     IErMin= 9 ErrMin= 4.51D-03
 ErrMax= 4.51D-03 EMaxC= 1.00D-01 BMatC= 3.57D-03 BMatP= 3.53D-02
 IDIUse=3 WtCom= 9.55D-01 WtEn= 4.51D-02
 Coeff-Com: -0.109D-01 0.208D-01 0.231D-03-0.602D-02-0.132D-02 0.574D-01
 Coeff-Com:  0.910D-01 0.288D+00 0.561D+00
 Coeff-En:   0.000D+00 0.000D+00 0.000D+00 0.000D+00 0.000D+00 0.000D+00
 Coeff-En:   0.000D+00 0.901D-01 0.910D+00
 Coeff:     -0.104D-01 0.198D-01 0.221D-03-0.575D-02-0.126D-02 0.548D-01
 Coeff:      0.869D-01 0.279D+00 0.577D+00
 Gap=     0.066 Goal=   None    Shift=    0.000
 RMSDP=2.57D-04 MaxDP=9.89D-03 DE=-3.01D-02 OVMax= 1.05D-02

 Cycle  10  Pass 1  IDiag  1:
 RMSU=  8.67D-05    CP:  8.78D-01  1.86D-01  3.07D-01  6.41D-01  2.27D-02
                    CP:  8.12D-01  5.67D-01  5.37D-01  6.94D-01
 E= -1286.10559220692     Delta-E=       -0.002667643139 Rises=F Damp=F
 DIIS: error= 2.61D-03 at cycle  10 NSaved=  10.
 NSaved=10 IEnMin=10 EnMin= -1286.10559220692     IErMin=10 ErrMin= 2.61D-03
 ErrMax= 2.61D-03 EMaxC= 1.00D-01 BMatC= 8.03D-04 BMatP= 3.57D-03
 IDIUse=3 WtCom= 9.74D-01 WtEn= 2.61D-02
 Coeff-Com: -0.296D-04 0.413D-02 0.308D-04-0.552D-02-0.630D-03-0.505D-02
 Coeff-Com:  0.114D-01 0.139D+00 0.432D+00 0.425D+00
 Coeff-En:   0.000D+00 0.000D+00 0.000D+00 0.000D+00 0.000D+00 0.000D+00
 Coeff-En:   0.000D+00 0.000D+00 0.854D-01 0.915D+00
 Coeff:     -0.288D-04 0.402D-02 0.300D-04-0.538D-02-0.614D-03-0.491D-02
 Coeff:      0.111D-01 0.135D+00 0.423D+00 0.438D+00
 Gap=     0.066 Goal=   None    Shift=    0.000
 RMSDP=8.84D-05 MaxDP=2.85D-03 DE=-2.67D-03 OVMax= 3.89D-03

 Cycle  11  Pass 1  IDiag  1:
 RMSU=  3.14D-05    CP:  8.78D-01  1.85D-01  3.07D-01  6.41D-01  2.25D-02
                    CP:  8.11D-01  5.73D-01  5.47D-01  7.46D-01  4.70D-01
 E= -1286.10620065521     Delta-E=       -0.000608448297 Rises=F Damp=F
 DIIS: error= 1.34D-03 at cycle  11 NSaved=  11.
 NSaved=11 IEnMin=11 EnMin= -1286.10620065521     IErMin=11 ErrMin= 1.34D-03
 ErrMax= 1.34D-03 EMaxC= 1.00D-01 BMatC= 1.14D-04 BMatP= 8.03D-04
 IDIUse=3 WtCom= 9.87D-01 WtEn= 1.34D-02
 Coeff-Com:  0.795D-02-0.970D-02-0.448D-04-0.211D-02-0.715D-03-0.674D-02
 Coeff-Com: -0.660D-02-0.113D-01 0.786D-02 0.510D-01 0.970D+00
 Coeff-En:   0.000D+00 0.000D+00 0.000D+00 0.000D+00 0.000D+00 0.000D+00
 Coeff-En:   0.000D+00 0.000D+00 0.000D+00 0.000D+00 0.100D+01
 Coeff:      0.784D-02-0.957D-02-0.442D-04-0.208D-02-0.705D-03-0.665D-02
 Coeff:     -0.651D-02-0.111D-01 0.775D-02 0.503D-01 0.971D+00
 Gap=     0.066 Goal=   None    Shift=    0.000
 RMSDP=5.12D-05 MaxDP=2.49D-03 DE=-6.08D-04 OVMax= 3.24D-03

 Cycle  12  Pass 1  IDiag  1:
 RMSU=  3.06D-05    CP:  8.78D-01  1.85D-01  3.06D-01  6.40D-01  2.25D-02
                    CP:  8.11D-01  5.75D-01  5.45D-01  7.49D-01  4.96D-01
                    CP:  1.23D+00
 E= -1286.10630279886     Delta-E=       -0.000102143652 Rises=F Damp=F
 DIIS: error= 3.78D-04 at cycle  12 NSaved=  12.
 NSaved=12 IEnMin=12 EnMin= -1286.10630279886     IErMin=12 ErrMin= 3.78D-04
 ErrMax= 3.78D-04 EMaxC= 1.00D-01 BMatC= 2.34D-05 BMatP= 1.14D-04
 IDIUse=3 WtCom= 9.96D-01 WtEn= 3.78D-03
 Coeff-Com:  0.460D-02-0.648D-02 0.169D-04-0.494D-03-0.192D-03 0.490D-02
 Coeff-Com:  0.435D-02-0.197D-01-0.714D-01-0.735D-01 0.548D+00 0.610D+00
 Coeff-En:   0.000D+00 0.000D+00 0.000D+00 0.000D+00 0.000D+00 0.000D+00
 Coeff-En:   0.000D+00 0.000D+00 0.000D+00 0.000D+00 0.581D-01 0.942D+00
 Coeff:      0.459D-02-0.646D-02 0.168D-04-0.492D-03-0.191D-03 0.488D-02
 Coeff:      0.433D-02-0.196D-01-0.712D-01-0.732D-01 0.546D+00 0.611D+00
 Gap=     0.065 Goal=   None    Shift=    0.000
 RMSDP=3.28D-05 MaxDP=1.09D-03 DE=-1.02D-04 OVMax= 1.56D-03

 Cycle  13  Pass 1  IDiag  1:
 RMSU=  2.01D-05    CP:  8.79D-01  1.84D-01  3.06D-01  6.40D-01  2.25D-02
                    CP:  8.11D-01  5.75D-01  5.45D-01  7.32D-01  4.48D-01
                    CP:  1.27D+00  7.54D-01
 E= -1286.10631636513     Delta-E=       -0.000013566269 Rises=F Damp=F
 DIIS: error= 2.16D-04 at cycle  13 NSaved=  13.
 NSaved=13 IEnMin=13 EnMin= -1286.10631636513     IErMin=13 ErrMin= 2.16D-04
 ErrMax= 2.16D-04 EMaxC= 1.00D-01 BMatC= 9.42D-06 BMatP= 2.34D-05
 IDIUse=3 WtCom= 9.98D-01 WtEn= 2.16D-03
 Coeff-Com:  0.130D-02-0.199D-02 0.123D-04-0.143D-03 0.720D-05 0.414D-02
 Coeff-Com:  0.478D-02 0.418D-02 0.312D-02 0.546D-02 0.110D+00 0.320D+00
 Coeff-Com:  0.549D+00
 Coeff-En:   0.000D+00 0.000D+00 0.000D+00 0.000D+00 0.000D+00 0.000D+00
 Coeff-En:   0.000D+00 0.000D+00 0.000D+00 0.000D+00 0.000D+00 0.289D+00
 Coeff-En:   0.711D+00
 Coeff:      0.130D-02-0.199D-02 0.123D-04-0.143D-03 0.719D-05 0.413D-02
 Coeff:      0.477D-02 0.417D-02 0.311D-02 0.545D-02 0.110D+00 0.320D+00
 Coeff:      0.549D+00
 Gap=     0.065 Goal=   None    Shift=    0.000
 RMSDP=1.51D-05 MaxDP=5.78D-04 DE=-1.36D-05 OVMax= 7.16D-04

 Cycle  14  Pass 1  IDiag  1:
 RMSU=  5.94D-06    CP:  8.79D-01  1.85D-01  3.06D-01  6.40D-01  2.25D-02
                    CP:  8.12D-01  5.74D-01  5.42D-01  7.20D-01  4.55D-01
                    CP:  1.21D+00  8.24D-01  7.37D-01
 E= -1286.10632522028     Delta-E=       -0.000008855145 Rises=F Damp=F
 DIIS: error= 1.37D-04 at cycle  14 NSaved=  14.
 NSaved=14 IEnMin=14 EnMin= -1286.10632522028     IErMin=14 ErrMin= 1.37D-04
 ErrMax= 1.37D-04 EMaxC= 1.00D-01 BMatC= 1.55D-06 BMatP= 9.42D-06
 IDIUse=3 WtCom= 9.99D-01 WtEn= 1.37D-03
 Coeff-Com:  0.233D-03-0.351D-03-0.108D-05-0.561D-04 0.212D-04 0.159D-02
 Coeff-Com:  0.206D-02 0.718D-02 0.217D-01 0.296D-01 0.115D-01 0.561D-01
 Coeff-Com:  0.213D+00 0.657D+00
 Coeff-En:   0.000D+00 0.000D+00 0.000D+00 0.000D+00 0.000D+00 0.000D+00
 Coeff-En:   0.000D+00 0.000D+00 0.000D+00 0.000D+00 0.000D+00 0.000D+00
 Coeff-En:   0.000D+00 0.100D+01
 Coeff:      0.233D-03-0.350D-03-0.108D-05-0.560D-04 0.212D-04 0.159D-02
 Coeff:      0.205D-02 0.717D-02 0.217D-01 0.296D-01 0.115D-01 0.560D-01
 Coeff:      0.213D+00 0.658D+00
 Gap=     0.066 Goal=   None    Shift=    0.000
 RMSDP=5.50D-06 MaxDP=2.77D-04 DE=-8.86D-06 OVMax= 3.21D-04

 Cycle  15  Pass 1  IDiag  1:
 RMSU=  1.95D-06    CP:  8.79D-01  1.85D-01  3.06D-01  6.40D-01  2.26D-02
                    CP:  8.12D-01  5.74D-01  5.42D-01  7.20D-01  4.54D-01
                    CP:  1.16D+00  7.76D-01  6.85D-01  7.94D-01
 E= -1286.10632668262     Delta-E=       -0.000001462338 Rises=F Damp=F
 DIIS: error= 1.69D-05 at cycle  15 NSaved=  15.
 NSaved=15 IEnMin=15 EnMin= -1286.10632668262     IErMin=15 ErrMin= 1.69D-05
 ErrMax= 1.69D-05 EMaxC= 1.00D-01 BMatC= 6.35D-08 BMatP= 1.55D-06
 IDIUse=1 WtCom= 1.00D+00 WtEn= 0.00D+00
 Coeff-Com:  0.885D-05-0.145D-04 0.181D-05-0.956D-05 0.172D-06 0.306D-03
 Coeff-Com:  0.376D-03 0.290D-02 0.110D-01 0.162D-01-0.646D-02-0.198D-01
 Coeff-Com:  0.365D-01 0.343D+00 0.616D+00
 Coeff:      0.885D-05-0.145D-04 0.181D-05-0.956D-05 0.172D-06 0.306D-03
 Coeff:      0.376D-03 0.290D-02 0.110D-01 0.162D-01-0.646D-02-0.198D-01
 Coeff:      0.365D-01 0.343D+00 0.616D+00
 Gap=     0.066 Goal=   None    Shift=    0.000
 RMSDP=1.47D-06 MaxDP=5.85D-05 DE=-1.46D-06 OVMax= 3.72D-05

 Cycle  16  Pass 1  IDiag  1:
 RMSU=  4.67D-07    CP:  8.79D-01  1.85D-01  3.06D-01  6.40D-01  2.26D-02
                    CP:  8.12D-01  5.74D-01  5.41D-01  7.20D-01  4.56D-01
                    CP:  1.15D+00  7.69D-01  7.00D-01  8.24D-01  7.05D-01
 E= -1286.10632675182     Delta-E=       -0.000000069199 Rises=F Damp=F
 DIIS: error= 2.60D-06 at cycle  16 NSaved=  16.
 NSaved=16 IEnMin=16 EnMin= -1286.10632675182     IErMin=16 ErrMin= 2.60D-06
 ErrMax= 2.60D-06 EMaxC= 1.00D-01 BMatC= 1.87D-09 BMatP= 6.35D-08
 IDIUse=1 WtCom= 1.00D+00 WtEn= 0.00D+00
 Coeff-Com: -0.463D-05 0.503D-05 0.277D-06 0.896D-07-0.796D-06 0.645D-04
 Coeff-Com:  0.701D-04 0.772D-03 0.329D-02 0.530D-02-0.285D-02-0.874D-02
 Coeff-Com:  0.982D-02 0.112D+00 0.246D+00 0.634D+00
 Coeff:     -0.463D-05 0.503D-05 0.277D-06 0.896D-07-0.796D-06 0.645D-04
 Coeff:      0.701D-04 0.772D-03 0.329D-02 0.530D-02-0.285D-02-0.874D-02
 Coeff:      0.982D-02 0.112D+00 0.246D+00 0.634D+00
 Gap=     0.066 Goal=   None    Shift=    0.000
 RMSDP=3.41D-07 MaxDP=1.14D-05 DE=-6.92D-08 OVMax= 1.17D-05

 Cycle  17  Pass 1  IDiag  1:
 RMSU=  1.55D-07    CP:  8.79D-01  1.85D-01  3.06D-01  6.40D-01  2.26D-02
                    CP:  8.12D-01  5.74D-01  5.41D-01  7.20D-01  4.56D-01
                    CP:  1.15D+00  7.70D-01  7.07D-01  8.32D-01  6.94D-01
                    CP:  8.23D-01
 E= -1286.10632675375     Delta-E=       -0.000000001931 Rises=F Damp=F
 DIIS: error= 9.37D-07 at cycle  17 NSaved=  17.
 NSaved=17 IEnMin=17 EnMin= -1286.10632675375     IErMin=17 ErrMin= 9.37D-07
 ErrMax= 9.37D-07 EMaxC= 1.00D-01 BMatC= 2.31D-10 BMatP= 1.87D-09
 IDIUse=1 WtCom= 1.00D+00 WtEn= 0.00D+00
 Coeff-Com: -0.271D-06 0.424D-06 0.144D-07 0.731D-08-0.263D-07-0.176D-05
 Coeff-Com:  0.876D-05 0.135D-03 0.628D-03 0.106D-02-0.656D-03-0.148D-02
 Coeff-Com:  0.190D-02 0.190D-01 0.509D-01 0.274D+00 0.654D+00
 Coeff:     -0.271D-06 0.424D-06 0.144D-07 0.731D-08-0.263D-07-0.176D-05
 Coeff:      0.876D-05 0.135D-03 0.628D-03 0.106D-02-0.656D-03-0.148D-02
 Coeff:      0.190D-02 0.190D-01 0.509D-01 0.274D+00 0.654D+00
 Gap=     0.066 Goal=   None    Shift=    0.000
 RMSDP=1.13D-07 MaxDP=2.63D-06 DE=-1.93D-09 OVMax= 4.01D-06

 Cycle  18  Pass 1  IDiag  1:
 RMSU=  2.88D-08    CP:  8.79D-01  1.85D-01  3.06D-01  6.40D-01  2.26D-02
                    CP:  8.12D-01  5.74D-01  5.41D-01  7.20D-01  4.56D-01
                    CP:  1.15D+00  7.69D-01  7.06D-01  8.31D-01  6.99D-01
                    CP:  8.16D-01  6.81D-01
 E= -1286.10632675401     Delta-E=       -0.000000000266 Rises=F Damp=F
 DIIS: error= 4.12D-07 at cycle  18 NSaved=  18.
 NSaved=18 IEnMin=18 EnMin= -1286.10632675401     IErMin=18 ErrMin= 4.12D-07
 ErrMax= 4.12D-07 EMaxC= 1.00D-01 BMatC= 1.43D-11 BMatP= 2.31D-10
 IDIUse=1 WtCom= 1.00D+00 WtEn= 0.00D+00
 Coeff-Com: -0.683D-07 0.993D-07 0.472D-08-0.285D-09 0.111D-07-0.192D-05
 Coeff-Com:  0.499D-05 0.711D-04 0.341D-03 0.590D-03-0.374D-03-0.765D-03
 Coeff-Com:  0.106D-02 0.103D-01 0.288D-01 0.160D+00 0.401D+00 0.398D+00
 Coeff:     -0.683D-07 0.993D-07 0.472D-08-0.285D-09 0.111D-07-0.192D-05
 Coeff:      0.499D-05 0.711D-04 0.341D-03 0.590D-03-0.374D-03-0.765D-03
 Coeff:      0.106D-02 0.103D-01 0.288D-01 0.160D+00 0.401D+00 0.398D+00
 Gap=     0.066 Goal=   None    Shift=    0.000
 RMSDP=4.10D-08 MaxDP=3.72D-06 DE=-2.66D-10 OVMax= 4.92D-06

 Cycle  19  Pass 1  IDiag  1:
 RMSU=  2.51D-08    CP:  8.79D-01  1.85D-01  3.06D-01  6.40D-01  2.26D-02
                    CP:  8.12D-01  5.74D-01  5.41D-01  7.20D-01  4.56D-01
                    CP:  1.15D+00  7.69D-01  7.06D-01  8.31D-01  6.99D-01
                    CP:  8.18D-01  6.88D-01  5.21D-01
 E= -1286.10632675395     Delta-E=        0.000000000065 Rises=F Damp=F
 DIIS: error= 8.27D-07 at cycle  19 NSaved=  19.
 NSaved=19 IEnMin=18 EnMin= -1286.10632675401     IErMin=18 ErrMin= 4.12D-07
 ErrMax= 8.27D-07 EMaxC= 1.00D-01 BMatC= 4.43D-11 BMatP= 1.43D-11
 IDIUse=1 WtCom= 1.00D+00 WtEn= 0.00D+00
 Coeff-Com:  0.783D-07-0.145D-06-0.218D-08-0.427D-08 0.343D-07-0.146D-05
 Coeff-Com:  0.160D-05 0.134D-04 0.786D-04 0.155D-03-0.109D-03-0.129D-03
 Coeff-Com:  0.280D-03 0.245D-02 0.825D-02 0.501D-01 0.143D+00 0.541D+00
 Coeff-Com:  0.255D+00
 Coeff:      0.783D-07-0.145D-06-0.218D-08-0.427D-08 0.343D-07-0.146D-05
 Coeff:      0.160D-05 0.134D-04 0.786D-04 0.155D-03-0.109D-03-0.129D-03
 Coeff:      0.280D-03 0.245D-02 0.825D-02 0.501D-01 0.143D+00 0.541D+00
 Coeff:      0.255D+00
 Gap=     0.066 Goal=   None    Shift=    0.000
 RMSDP=2.81D-08 MaxDP=2.52D-06 DE= 6.55D-11 OVMax= 3.33D-06

 Cycle  20  Pass 1  IDiag  1:
 Restarting incremental Fock formation.
 E= -1286.10632675436     Delta-E=       -0.000000000411 Rises=F Damp=F
 DIIS: error= 1.86D-08 at cycle  20 NSaved=  20.
 NSaved=20 IEnMin=20 EnMin= -1286.10632675436     IErMin=20 ErrMin= 1.86D-08
 ErrMax= 1.86D-08 EMaxC= 1.00D-01 BMatC= 6.71D-14 BMatP= 1.43D-11
 IDIUse=1 WtCom= 1.00D+00 WtEn= 0.00D+00
 Coeff-Com:  0.215D-07-0.354D-07 0.749D-09 0.137D-08 0.328D-08-0.228D-06
 Coeff-Com:  0.249D-06-0.530D-06 0.382D-05 0.149D-04-0.858D-05-0.255D-05
 Coeff-Com:  0.114D-04 0.111D-03 0.939D-03 0.663D-02 0.210D-01 0.138D+00
 Coeff-Com:  0.757D-01 0.758D+00
 Coeff:      0.215D-07-0.354D-07 0.749D-09 0.137D-08 0.328D-08-0.228D-06
 Coeff:      0.249D-06-0.530D-06 0.382D-05 0.149D-04-0.858D-05-0.255D-05
 Coeff:      0.114D-04 0.111D-03 0.939D-03 0.663D-02 0.210D-01 0.138D+00
 Coeff:      0.757D-01 0.758D+00
 Gap=     0.066 Goal=   None    Shift=    0.000
 RMSDP=2.32D-09 MaxDP=5.33D-08 DE=-4.11D-10 OVMax= 7.32D-08

 SCF Done:  E(RB-P86) =  -1286.10632675     A.U. after   20 cycles
             Convg  =    0.2321D-08             -V/T =  2.1306
 KE= 1.137545885455D+03 PE=-7.687369436660D+03 EE= 2.905973810715D+03
 Leave Link  502 at Sun Nov 24 22:12:57 2013, MaxMem=   33554432 cpu:    1051.7
 (Enter /net/cottusp/opt/gaussian/g09revA02_amd64/g09/l601.exe)
 Copying SCF densities to generalized density rwf, IOpCl= 0 IROHF=0.

 **********************************************************************

            Population analysis using the SCF density.

 **********************************************************************

 Alpha  occ. eigenvalues --  -18.81206 -18.81206 -18.78960 -18.78960 -18.78960
 Alpha  occ. eigenvalues --  -18.78960 -18.78523 -18.78522 -18.78522 -18.78522
 Alpha  occ. eigenvalues --  -10.03504 -10.03504 -10.03041 -10.03041  -9.91434
 Alpha  occ. eigenvalues --   -9.91434  -9.91094  -9.91094  -2.95707  -2.95480
 Alpha  occ. eigenvalues --   -1.79984  -1.79855  -1.79778  -1.79648  -1.79123
 Alpha  occ. eigenvalues --   -1.77281  -0.97988  -0.97571  -0.97327  -0.97199
 Alpha  occ. eigenvalues --   -0.94685  -0.94683  -0.89784  -0.89323  -0.89189
 Alpha  occ. eigenvalues --   -0.88936  -0.66867  -0.66691  -0.66478  -0.66330
 Alpha  occ. eigenvalues --   -0.51780  -0.51741  -0.49723  -0.48950  -0.48003
 Alpha  occ. eigenvalues --   -0.47599  -0.44629  -0.43857  -0.41747  -0.41327
 Alpha  occ. eigenvalues --   -0.41153  -0.40377  -0.40167  -0.40133  -0.39875
 Alpha  occ. eigenvalues --   -0.39698  -0.39347  -0.39168  -0.37343  -0.36701
 Alpha  occ. eigenvalues --   -0.35451  -0.35126  -0.35094  -0.34783  -0.34273
 Alpha  occ. eigenvalues --   -0.32929  -0.32591  -0.31587  -0.29997  -0.29518
 Alpha  occ. eigenvalues --   -0.29241  -0.27706  -0.27662  -0.26110  -0.25666
 Alpha  occ. eigenvalues --   -0.25655  -0.25171  -0.24971  -0.24923  -0.23982
 Alpha  occ. eigenvalues --   -0.23448  -0.23123  -0.20759  -0.19761  -0.19085
 Alpha  occ. eigenvalues --   -0.18915  -0.14608  -0.14435  -0.13865
 Alpha virt. eigenvalues --   -0.07313  -0.07162  -0.05859  -0.03522  -0.03152
 Alpha virt. eigenvalues --   -0.02478  -0.02091  -0.01324  -0.01029   0.03346
 Alpha virt. eigenvalues --    0.03938   0.05301   0.05971   0.07188   0.10933
 Alpha virt. eigenvalues --    0.11529   0.11920   0.12378   0.13809   0.13960
 Alpha virt. eigenvalues --    0.14011   0.14446   0.14994   0.15061   0.15296
 Alpha virt. eigenvalues --    0.16380   0.16763   0.16840   0.17334   0.17362
 Alpha virt. eigenvalues --    0.18155   0.18248   0.18470   0.18539   0.19636
 Alpha virt. eigenvalues --    0.20000   0.20490   0.20885   0.23044   0.24371
 Alpha virt. eigenvalues --    0.25485   0.26866   0.27096   0.27326   0.27572
 Alpha virt. eigenvalues --    0.28028   0.28997   0.29360   0.29988   0.31149
 Alpha virt. eigenvalues --    0.31403   0.32210   0.32392   0.32518   0.34696
 Alpha virt. eigenvalues --    0.36506   0.36678   0.36803   0.37567   0.38985
 Alpha virt. eigenvalues --    0.39532   0.40250   0.40255   0.40653   0.44059
 Alpha virt. eigenvalues --    0.45776   0.46121   0.46953   0.49692   0.50793
 Alpha virt. eigenvalues --    0.50817   0.52545   0.52623   0.55576   0.55581
 Alpha virt. eigenvalues --    0.60134   0.62630   0.64337   0.64743   0.64949
 Alpha virt. eigenvalues --    0.65864   0.67291   0.67936   0.71201   0.74435
 Alpha virt. eigenvalues --    0.75226   0.75260   0.75833   0.76628   0.76833
 Alpha virt. eigenvalues --    0.79141   0.81446   0.83164   0.84587   0.84780
 Alpha virt. eigenvalues --    0.85309   0.86215   0.86628   0.87223   0.87397
 Alpha virt. eigenvalues --    0.89879   0.90689   0.91260   0.92627   0.92761
 Alpha virt. eigenvalues --    0.93337   0.93450   0.94539   0.95345   0.97517
 Alpha virt. eigenvalues --    0.99704   1.00202   1.00207   1.01097   1.01762
 Alpha virt. eigenvalues --    1.02375   1.03762   1.04532   1.05326   1.06049
 Alpha virt. eigenvalues --    1.07347   1.07791   1.08780   1.08783   1.09554
 Alpha virt. eigenvalues --    1.13246   1.15117   1.18112   1.18471   1.19404
 Alpha virt. eigenvalues --    1.22359   1.27241   1.27773   1.32441   1.36062
 Alpha virt. eigenvalues --    1.37863   1.37912   1.69003   1.77699   1.78406
 Alpha virt. eigenvalues --    1.80755   1.84656   1.89939   1.90288   2.00161
 Alpha virt. eigenvalues --    2.03261   2.11049   5.91730   7.26023
          Condensed to atoms (all electrons):
              1          2          3          4          5          6
     1  C    4.915428   0.255473   0.002503  -0.000567  -0.021967  -0.022614
     2  C    0.255473   5.620453  -0.000517   0.000028   0.364698   0.354858
     3  C    0.002503  -0.000517   4.890411   0.258280   0.000002   0.000005
     4  C   -0.000567   0.000028   0.258280   5.615854   0.000000  -0.000001
     5  H   -0.021967   0.364698   0.000002   0.000000   0.459625  -0.018944
     6  H   -0.022614   0.354858   0.000005  -0.000001  -0.018944   0.459019
     7  H   -0.022614   0.354858   0.000005  -0.000001  -0.018944  -0.019539
     8  H   -0.000005  -0.000002  -0.022041   0.364503   0.000000   0.000000
     9  H    0.000005   0.000000  -0.022861   0.354966   0.000000   0.000000
    10  H    0.000005   0.000000  -0.022861   0.354966   0.000000   0.000000
    11  O    0.329080  -0.099306   0.000348   0.000003  -0.001871   0.001415
    12  O    0.329080  -0.099306   0.000348   0.000003  -0.001871   0.003592
    13  O   -0.000174   0.000013   0.336286  -0.098670   0.000000   0.000000
    14  O    0.000315   0.000008  -0.000136  -0.000004   0.000004   0.000000
    15  O   -0.000769  -0.000028  -0.000926  -0.000009   0.000000   0.000000
    16  Rh  -0.099935   0.001582  -0.099315   0.001894   0.000051  -0.000038
    17  Rh  -0.099935   0.001582  -0.099315   0.001894   0.000051   0.001542
    18  O   -0.000133  -0.000005  -0.000123   0.000010   0.000000   0.000000
    19  O   -0.000174   0.000013   0.336286  -0.098670   0.000000   0.000000
    20  C    0.002485  -0.000557  -0.000713  -0.000012  -0.000002   0.000006
    21  O   -0.000133  -0.000005  -0.000123   0.000010   0.000000   0.000000
    22  O    0.000315   0.000008  -0.000136  -0.000004   0.000004  -0.000001
    23  O   -0.000769  -0.000028  -0.000926  -0.000009   0.000000  -0.000001
    24  C   -0.000738  -0.000012   0.002485  -0.000529   0.000000   0.000000
    25  C   -0.000529   0.000028  -0.000012   0.000000  -0.000002   0.000000
    26  C   -0.000012   0.000000  -0.000557   0.000028   0.000000   0.000000
    27  H    0.000000   0.000000  -0.000002  -0.000002   0.000000   0.000000
    28  H    0.000000   0.000000   0.000006   0.000000   0.000000   0.000000
    29  H    0.000000   0.000000   0.000006   0.000000   0.000000   0.000000
    30  H    0.000002   0.000000   0.000000   0.000000   0.000000   0.000000
    31  H    0.000004  -0.000001   0.000000   0.000000   0.000000   0.000000
    32  H    0.000004  -0.000001   0.000000   0.000000   0.000000   0.000000
    33  H    0.000037   0.000000   0.000023   0.000000   0.000000   0.000000
    34  H    0.000034   0.000000   0.000069  -0.000006   0.000000   0.000000
    35  H    0.000034   0.000000   0.000069  -0.000006   0.000000   0.000000
    36  H    0.000037   0.000000   0.000023   0.000000   0.000000   0.000000
              7          8          9         10         11         12
     1  C   -0.022614  -0.000005   0.000005   0.000005   0.329080   0.329080
     2  C    0.354858  -0.000002   0.000000   0.000000  -0.099306  -0.099306
     3  C    0.000005  -0.022041  -0.022861  -0.022861   0.000348   0.000348
     4  C   -0.000001   0.364503   0.354966   0.354966   0.000003   0.000003
     5  H   -0.018944   0.000000   0.000000   0.000000  -0.001871  -0.001871
     6  H   -0.019539   0.000000   0.000000   0.000000   0.001415   0.003592
     7  H    0.459019   0.000000   0.000000   0.000000   0.003592   0.001415
     8  H    0.000000   0.458082  -0.019026  -0.019026   0.000004   0.000004
     9  H    0.000000  -0.019026   0.459365  -0.019432   0.000000  -0.000001
    10  H    0.000000  -0.019026  -0.019432   0.459365  -0.000001   0.000000
    11  O    0.003592   0.000004   0.000000  -0.000001   7.950748  -0.053996
    12  O    0.001415   0.000004  -0.000001   0.000000  -0.053996   7.950748
    13  O    0.000000  -0.001864   0.001416   0.003600  -0.002210   0.000014
    14  O   -0.000001   0.000000   0.000000   0.000000  -0.002195   0.000012
    15  O   -0.000001   0.000000   0.000000  -0.000001  -0.002071  -0.000003
    16  Rh   0.001542   0.000176   0.000038   0.001616   0.206327  -0.030737
    17  Rh  -0.000038   0.000176   0.001616   0.000038  -0.030737   0.206327
    18  O    0.000000   0.000000   0.000000   0.000000  -0.001252  -0.000014
    19  O    0.000000  -0.001864   0.003600   0.001416   0.000014  -0.002210
    20  C    0.000006   0.000000   0.000000   0.000000  -0.000123  -0.000123
    21  O    0.000000   0.000000   0.000000   0.000000  -0.000014  -0.001252
    22  O    0.000000   0.000000   0.000000   0.000000   0.000012  -0.002195
    23  O    0.000000   0.000000  -0.000001   0.000000  -0.000003  -0.002071
    24  C    0.000000   0.000002   0.000004   0.000004  -0.000133  -0.000133
    25  C    0.000000   0.000000   0.000000   0.000000   0.000010   0.000010
    26  C    0.000000   0.000000  -0.000001  -0.000001  -0.000005  -0.000005
    27  H    0.000000   0.000000   0.000000   0.000000   0.000000   0.000000
    28  H    0.000000   0.000000   0.000000   0.000000   0.000000   0.000000
    29  H    0.000000   0.000000   0.000000   0.000000   0.000000   0.000000
    30  H    0.000000   0.000000   0.000000   0.000000   0.000000   0.000000
    31  H    0.000000   0.000000   0.000000   0.000000   0.000000   0.000000
    32  H    0.000000   0.000000   0.000000   0.000000   0.000000   0.000000
    33  H    0.000000   0.000000   0.000000   0.000000   0.000000   0.000003
    34  H    0.000000   0.000000   0.000000   0.000000   0.000000   0.000000
    35  H    0.000000   0.000000   0.000000   0.000000   0.000000   0.000000
    36  H    0.000000   0.000000   0.000000   0.000000   0.000003   0.000000
             13         14         15         16         17         18
     1  C   -0.000174   0.000315  -0.000769  -0.099935  -0.099935  -0.000133
     2  C    0.000013   0.000008  -0.000028   0.001582   0.001582  -0.000005
     3  C    0.336286  -0.000136  -0.000926  -0.099315  -0.099315  -0.000123
     4  C   -0.098670  -0.000004  -0.000009   0.001894   0.001894   0.000010
     5  H    0.000000   0.000004   0.000000   0.000051   0.000051   0.000000
     6  H    0.000000   0.000000   0.000000  -0.000038   0.001542   0.000000
     7  H    0.000000  -0.000001  -0.000001   0.001542  -0.000038   0.000000
     8  H   -0.001864   0.000000   0.000000   0.000176   0.000176   0.000000
     9  H    0.001416   0.000000   0.000000   0.000038   0.001616   0.000000
    10  H    0.003600   0.000000  -0.000001   0.001616   0.000038   0.000000
    11  O   -0.002210  -0.002195  -0.002071   0.206327  -0.030737  -0.001252
    12  O    0.000014   0.000012  -0.000003  -0.030737   0.206327  -0.000014
    13  O    7.959794  -0.001261  -0.003137   0.200467  -0.028014  -0.002195
    14  O   -0.001261   7.959794  -0.003137   0.200467  -0.028014  -0.002210
    15  O   -0.003137  -0.003137   8.138408   0.055090  -0.017551  -0.002071
    16  Rh   0.200467   0.200467   0.055090  16.643589  -0.240778   0.206327
    17  Rh  -0.028014  -0.028014  -0.017551  -0.240778  16.643589  -0.030737
    18  O   -0.002195  -0.002210  -0.002071   0.206327  -0.030737   7.950748
    19  O   -0.055798  -0.000014   0.000000  -0.028014   0.200467   0.000012
    20  C   -0.000136   0.336286  -0.000926  -0.099315  -0.099315   0.000348
    21  O    0.000012   0.000014  -0.000003  -0.030737   0.206327  -0.053996
    22  O   -0.000014  -0.055798   0.000000  -0.028014   0.200467   0.000014
    23  O    0.000000   0.000000   0.000000  -0.017551   0.055090  -0.000003
    24  C    0.000315  -0.000174  -0.000769  -0.099935  -0.099935   0.329080
    25  C   -0.000004  -0.098670  -0.000009   0.001894   0.001894   0.000003
    26  C    0.000008   0.000013  -0.000028   0.001582   0.001582  -0.099306
    27  H    0.000004   0.000000   0.000000   0.000051   0.000051  -0.001871
    28  H   -0.000001   0.000000  -0.000001   0.001542  -0.000038   0.003592
    29  H    0.000000   0.000000   0.000000  -0.000038   0.001542   0.001415
    30  H    0.000000  -0.001864   0.000000   0.000176   0.000176   0.000004
    31  H    0.000000   0.003600  -0.000001   0.001616   0.000038  -0.000001
    32  H    0.000000   0.001416   0.000000   0.000038   0.001616   0.000000
    33  H    0.000000   0.000000   0.000000   0.000705  -0.004567   0.000000
    34  H    0.000000   0.000000   0.000000   0.000705  -0.004567   0.000000
    35  H    0.000452   0.000084   0.260544  -0.004567   0.000705   0.000003
    36  H    0.000084   0.000452   0.260544  -0.004567   0.000705   0.000000
             19         20         21         22         23         24
     1  C   -0.000174   0.002485  -0.000133   0.000315  -0.000769  -0.000738
     2  C    0.000013  -0.000557  -0.000005   0.000008  -0.000028  -0.000012
     3  C    0.336286  -0.000713  -0.000123  -0.000136  -0.000926   0.002485
     4  C   -0.098670  -0.000012   0.000010  -0.000004  -0.000009  -0.000529
     5  H    0.000000  -0.000002   0.000000   0.000004   0.000000   0.000000
     6  H    0.000000   0.000006   0.000000  -0.000001  -0.000001   0.000000
     7  H    0.000000   0.000006   0.000000   0.000000   0.000000   0.000000
     8  H   -0.001864   0.000000   0.000000   0.000000   0.000000   0.000002
     9  H    0.003600   0.000000   0.000000   0.000000  -0.000001   0.000004
    10  H    0.001416   0.000000   0.000000   0.000000   0.000000   0.000004
    11  O    0.000014  -0.000123  -0.000014   0.000012  -0.000003  -0.000133
    12  O   -0.002210  -0.000123  -0.001252  -0.002195  -0.002071  -0.000133
    13  O   -0.055798  -0.000136   0.000012  -0.000014   0.000000   0.000315
    14  O   -0.000014   0.336286   0.000014  -0.055798   0.000000  -0.000174
    15  O    0.000000  -0.000926  -0.000003   0.000000   0.000000  -0.000769
    16  Rh  -0.028014  -0.099315  -0.030737  -0.028014  -0.017551  -0.099935
    17  Rh   0.200467  -0.099315   0.206327   0.200467   0.055090  -0.099935
    18  O    0.000012   0.000348  -0.053996   0.000014  -0.000003   0.329080
    19  O    7.959794  -0.000136  -0.002195  -0.001261  -0.003137   0.000315
    20  C   -0.000136   4.890411   0.000348   0.336286  -0.000926   0.002503
    21  O   -0.002195   0.000348   7.950748  -0.002210  -0.002071   0.329080
    22  O   -0.001261   0.336286  -0.002210   7.959794  -0.003137  -0.000174
    23  O   -0.003137  -0.000926  -0.002071  -0.003137   8.138408  -0.000769
    24  C    0.000315   0.002503   0.329080  -0.000174  -0.000769   4.915428
    25  C   -0.000004   0.258280   0.000003  -0.098670  -0.000009  -0.000567
    26  C    0.000008  -0.000517  -0.099306   0.000013  -0.000028   0.255473
    27  H    0.000004   0.000002  -0.001871   0.000000   0.000000  -0.021967
    28  H    0.000000   0.000005   0.001415   0.000000   0.000000  -0.022614
    29  H   -0.000001   0.000005   0.003592   0.000000  -0.000001  -0.022614
    30  H    0.000000  -0.022041   0.000004  -0.001864   0.000000  -0.000005
    31  H    0.000000  -0.022861   0.000000   0.001416   0.000000   0.000005
    32  H    0.000000  -0.022861  -0.000001   0.003600  -0.000001   0.000005
    33  H    0.000084   0.000069   0.000000   0.000452   0.260544   0.000034
    34  H    0.000452   0.000023   0.000003   0.000084   0.260544   0.000037
    35  H    0.000000   0.000023   0.000000   0.000000   0.000000   0.000037
    36  H    0.000000   0.000069   0.000000   0.000000   0.000000   0.000034
             25         26         27         28         29         30
     1  C   -0.000529  -0.000012   0.000000   0.000000   0.000000   0.000002
     2  C    0.000028   0.000000   0.000000   0.000000   0.000000   0.000000
     3  C   -0.000012  -0.000557  -0.000002   0.000006   0.000006   0.000000
     4  C    0.000000   0.000028  -0.000002   0.000000   0.000000   0.000000
     5  H   -0.000002   0.000000   0.000000   0.000000   0.000000   0.000000
     6  H    0.000000   0.000000   0.000000   0.000000   0.000000   0.000000
     7  H    0.000000   0.000000   0.000000   0.000000   0.000000   0.000000
     8  H    0.000000   0.000000   0.000000   0.000000   0.000000   0.000000
     9  H    0.000000  -0.000001   0.000000   0.000000   0.000000   0.000000
    10  H    0.000000  -0.000001   0.000000   0.000000   0.000000   0.000000
    11  O    0.000010  -0.000005   0.000000   0.000000   0.000000   0.000000
    12  O    0.000010  -0.000005   0.000000   0.000000   0.000000   0.000000
    13  O   -0.000004   0.000008   0.000004  -0.000001   0.000000   0.000000
    14  O   -0.098670   0.000013   0.000000   0.000000   0.000000  -0.001864
    15  O   -0.000009  -0.000028   0.000000  -0.000001   0.000000   0.000000
    16  Rh   0.001894   0.001582   0.000051   0.001542  -0.000038   0.000176
    17  Rh   0.001894   0.001582   0.000051  -0.000038   0.001542   0.000176
    18  O    0.000003  -0.099306  -0.001871   0.003592   0.001415   0.000004
    19  O   -0.000004   0.000008   0.000004   0.000000  -0.000001   0.000000
    20  C    0.258280  -0.000517   0.000002   0.000005   0.000005  -0.022041
    21  O    0.000003  -0.099306  -0.001871   0.001415   0.003592   0.000004
    22  O   -0.098670   0.000013   0.000000   0.000000   0.000000  -0.001864
    23  O   -0.000009  -0.000028   0.000000   0.000000  -0.000001   0.000000
    24  C   -0.000567   0.255473  -0.021967  -0.022614  -0.022614  -0.000005
    25  C    5.615854   0.000028   0.000000  -0.000001  -0.000001   0.364503
    26  C    0.000028   5.620453   0.364698   0.354858   0.354858  -0.000002
    27  H    0.000000   0.364698   0.459625  -0.018944  -0.018944   0.000000
    28  H   -0.000001   0.354858  -0.018944   0.459019  -0.019539   0.000000
    29  H   -0.000001   0.354858  -0.018944  -0.019539   0.459019   0.000000
    30  H    0.364503  -0.000002   0.000000   0.000000   0.000000   0.458082
    31  H    0.354966   0.000000   0.000000   0.000000   0.000000  -0.019026
    32  H    0.354966   0.000000   0.000000   0.000000   0.000000  -0.019026
    33  H   -0.000006   0.000000   0.000000   0.000000   0.000000   0.000000
    34  H    0.000000   0.000000   0.000000   0.000000   0.000000   0.000000
    35  H    0.000000   0.000000   0.000000   0.000000   0.000000   0.000000
    36  H   -0.000006   0.000000   0.000000   0.000000   0.000000   0.000000
             31         32         33         34         35         36
     1  C    0.000004   0.000004   0.000037   0.000034   0.000034   0.000037
     2  C   -0.000001  -0.000001   0.000000   0.000000   0.000000   0.000000
     3  C    0.000000   0.000000   0.000023   0.000069   0.000069   0.000023
     4  C    0.000000   0.000000   0.000000  -0.000006  -0.000006   0.000000
     5  H    0.000000   0.000000   0.000000   0.000000   0.000000   0.000000
     6  H    0.000000   0.000000   0.000000   0.000000   0.000000   0.000000
     7  H    0.000000   0.000000   0.000000   0.000000   0.000000   0.000000
     8  H    0.000000   0.000000   0.000000   0.000000   0.000000   0.000000
     9  H    0.000000   0.000000   0.000000   0.000000   0.000000   0.000000
    10  H    0.000000   0.000000   0.000000   0.000000   0.000000   0.000000
    11  O    0.000000   0.000000   0.000000   0.000000   0.000000   0.000003
    12  O    0.000000   0.000000   0.000003   0.000000   0.000000   0.000000
    13  O    0.000000   0.000000   0.000000   0.000000   0.000452   0.000084
    14  O    0.003600   0.001416   0.000000   0.000000   0.000084   0.000452
    15  O   -0.000001   0.000000   0.000000   0.000000   0.260544   0.260544
    16  Rh   0.001616   0.000038   0.000705   0.000705  -0.004567  -0.004567
    17  Rh   0.000038   0.001616  -0.004567  -0.004567   0.000705   0.000705
    18  O   -0.000001   0.000000   0.000000   0.000000   0.000003   0.000000
    19  O    0.000000   0.000000   0.000084   0.000452   0.000000   0.000000
    20  C   -0.022861  -0.022861   0.000069   0.000023   0.000023   0.000069
    21  O    0.000000  -0.000001   0.000000   0.000003   0.000000   0.000000
    22  O    0.001416   0.003600   0.000452   0.000084   0.000000   0.000000
    23  O    0.000000  -0.000001   0.260544   0.260544   0.000000   0.000000
    24  C    0.000005   0.000005   0.000034   0.000037   0.000037   0.000034
    25  C    0.354966   0.354966  -0.000006   0.000000   0.000000  -0.000006
    26  C    0.000000   0.000000   0.000000   0.000000   0.000000   0.000000
    27  H    0.000000   0.000000   0.000000   0.000000   0.000000   0.000000
    28  H    0.000000   0.000000   0.000000   0.000000   0.000000   0.000000
    29  H    0.000000   0.000000   0.000000   0.000000   0.000000   0.000000
    30  H   -0.019026  -0.019026   0.000000   0.000000   0.000000   0.000000
    31  H    0.459365  -0.019432   0.000000   0.000000   0.000000   0.000000
    32  H   -0.019432   0.459365   0.000000   0.000000   0.000000   0.000000
    33  H    0.000000   0.000000   0.358472  -0.029061   0.000000   0.000000
    34  H    0.000000   0.000000  -0.029061   0.358472   0.000000   0.000000
    35  H    0.000000   0.000000   0.000000   0.000000   0.358472  -0.029061
    36  H    0.000000   0.000000   0.000000   0.000000  -0.029061   0.358472
 Mulliken atomic charges:
              1
     1  C    0.436228
     2  C   -0.753835
     3  C    0.443409
     4  C   -0.753951
     5  H    0.239165
     6  H    0.240699
     7  H    0.240699
     8  H    0.240882
     9  H    0.240309
    10  H    0.240309
    11  O   -0.297638
    12  O   -0.297638
    13  O   -0.308989
    14  O   -0.308989
    15  O   -0.683149
    16  Rh   0.256066
    17  Rh   0.256066
    18  O   -0.297638
    19  O   -0.308989
    20  C    0.443409
    21  O   -0.297638
    22  O   -0.308989
    23  O   -0.683149
    24  C    0.436228
    25  C   -0.753951
    26  C   -0.753835
    27  H    0.239165
    28  H    0.240699
    29  H    0.240699
    30  H    0.240882
    31  H    0.240309
    32  H    0.240309
    33  H    0.413211
    34  H    0.413211
    35  H    0.413211
    36  H    0.413211
 Sum of Mulliken atomic charges =   0.00000
 Mulliken charges with hydrogens summed into heavy atoms:
              1
     1  C    0.436228
     2  C   -0.033271
     3  C    0.443409
     4  C   -0.032451
    11  O   -0.297638
    12  O   -0.297638
    13  O   -0.308989
    14  O   -0.308989
    15  O    0.143274
    16  Rh   0.256066
    17  Rh   0.256066
    18  O   -0.297638
    19  O   -0.308989
    20  C    0.443409
    21  O   -0.297638
    22  O   -0.308989
    23  O    0.143274
    24  C    0.436228
    25  C   -0.032451
    26  C   -0.033271
 Sum of Mulliken charges with hydrogens summed into heavy atoms =   0.00000
 Electronic spatial extent (au):  <R**2>=           5767.4839
 Charge=              0.0000 electrons
 Dipole moment (field-independent basis, Debye):
    X=              0.0000    Y=              0.0000    Z=              0.0000  Tot=              0.0000
 Quadrupole moment (field-independent basis, Debye-Ang):
   XX=           -126.5971   YY=           -134.2239   ZZ=           -112.5803
   XY=              0.0710   XZ=              0.0000   YZ=              0.0000
 Traceless Quadrupole moment (field-independent basis, Debye-Ang):
   XX=             -2.1300   YY=             -9.7568   ZZ=             11.8868
   XY=              0.0710   XZ=              0.0000   YZ=              0.0000
 Octapole moment (field-independent basis, Debye-Ang**2):
  XXX=              0.0000  YYY=              0.0000  ZZZ=              0.0000  XYY=              0.0000
  XXY=              0.0000  XXZ=              0.0000  XZZ=              0.0000  YZZ=              0.0000
  YYZ=              0.0000  XYZ=              0.0000
 Hexadecapole moment (field-independent basis, Debye-Ang**3):
 XXXX=          -2398.2813 YYYY=          -2408.0004 ZZZZ=           -801.4205 XXXY=              3.3779
 XXXZ=              0.0000 YYYX=             -3.4575 YYYZ=              0.0000 ZZZX=              0.0000
 ZZZY=              0.0000 XXYY=           -883.6007 XXZZ=           -731.5908 YYZZ=           -846.1386
 XXYZ=              0.0000 YYXZ=              0.0000 ZZXY=              0.5648
 N-N= 2.357743413735D+03 E-N=-7.687369438357D+03  KE= 1.137545885455D+03
 No NMR shielding tensors so no spin-rotation constants.
 Leave Link  601 at Sun Nov 24 22:12:57 2013, MaxMem=   33554432 cpu:       0.6
 (Enter /net/cottusp/opt/gaussian/g09revA02_amd64/g09/l701.exe)
 Compute integral first derivatives.
 ... and contract with generalized density number  0.
 DipInt: DoE/N= T T RetVal/Mat= T F Init=T NMatP=  1 IDeriv=0 Min/MaxMlt=  1  1
 Entering OneElI...
 Multipole integrals L=1 to 1 MinM= 0 MaxM= 0.
 Requested accuracy = 0.1000D-12
 PrsmSu:  NPrtUS=   1 ThrOK=F IAlg=1
 PRISM was handed    32854801 working-precision words and  8506 shell-pairs
 IPart=  0 NShTot=        8506 NBatch=          74 AvBLen=       114.9
 Entering OneElI...
 Calculate overlap and kinetic energy integrals
    NBasis = 242  MinDer = 1  MaxDer = 1
 Requested accuracy = 0.1000D-12
 PrsmSu:  NPrtUS=   2 ThrOK=T IAlg=1
 PRISM was handed    16178298 working-precision words and  9194 shell-pairs
 PRISM was handed    16178298 working-precision words and  9194 shell-pairs
 IPart=  0 NShTot=        4599 NBatch=          86 AvBLen=        53.5
 IPart=  1 NShTot=        4595 NBatch=          86 AvBLen=        53.4
 Entering OneElI...
 Calculate potential energy integrals
    NBasis = 242  MinDer = 1  MaxDer = 1
 Requested accuracy = 0.1000D-12
 PrsmSu:  NPrtUS=   2 ThrOK=T IAlg=1
 PRISM was handed    16332618 working-precision words and  7870 shell-pairs
 PRISM was handed    16332618 working-precision words and  7870 shell-pairs
 IPart=  1 NShTot=      141588 NBatch=        3933 AvBLen=        36.0
 IPart=  0 NShTot=      141732 NBatch=        3937 AvBLen=        36.0
   1 Symmetry operations used in ECPInt.
 ECPInt:  NShTT=    9591 NPrTT=   68474 LenC2=    9087 LenP2D=   38378.
 LDataN:  DoStor=F MaxTD1= 6 Len=  172
 LDataN:  DoStor=T MaxTD1= 6 Len=  172
 ECPSu:  NPrtUS=   2 ThrOK=T
 FXYZ after ECPSu
 I=    0 X=   0.000000000000D+00 Y=   0.000000000000D+00 Z=   0.000000000000D+00
 I=    1 X=  -1.699251957962D-04 Y=  -1.160102950483D-02 Z=   0.000000000000D+00
 I=    2 X=   4.715054201811D-06 Y=   1.716119320287D-04 Z=   0.000000000000D+00
 I=    3 X=  -1.167843057215D-02 Y=   1.706328619878D-04 Z=   0.000000000000D+00
 I=    4 X=   1.671341169958D-04 Y=  -4.909557331591D-06 Z=   0.000000000000D+00
 I=    5 X=   1.683994502846D-08 Y=  -9.110588846904D-08 Z=   0.000000000000D+00
 I=    6 X=  -1.082625111395D-08 Y=  -1.234829999608D-07 Z=   0.000000000000D+00
 I=    7 X=  -1.082625076783D-08 Y=  -1.234829981782D-07 Z=   0.000000000000D+00
 I=    8 X=  -8.987205780915D-08 Y=  -1.649782697028D-08 Z=   0.000000000000D+00
 I=    9 X=  -1.223642144448D-07 Y=   1.062053632455D-08 Z=   0.000000000000D+00
 I=   10 X=  -1.223642144306D-07 Y=   1.062053635167D-08 Z=   0.000000000000D+00
 I=   11 X=   7.839126464614D-05 Y=   3.829205241424D-02 Z=   1.315290900671D-03
 I=   12 X=   7.839126375276D-05 Y=   3.829205210184D-02 Z=  -1.315290889569D-03
 I=   13 X=   3.791612047826D-02 Y=  -7.543748392768D-05 Z=   1.255017208536D-03
 I=   14 X=  -3.791612047457D-02 Y=   7.543747103036D-05 Z=   1.255017208414D-03
 I=   15 X=   0.000000000000D+00 Y=   0.000000000000D+00 Z=  -1.773403126126D-02
 I=   16 X=   0.000000000000D+00 Y=   0.000000000000D+00 Z=  -7.445935948692D-02
 I=   17 X=   0.000000000000D+00 Y=   0.000000000000D+00 Z=   7.445935948836D-02
 I=   18 X=  -7.839126378155D-05 Y=  -3.829205209582D-02 Z=   1.315290888400D-03
 I=   19 X=   3.791612048733D-02 Y=  -7.543747118431D-05 Z=  -1.255017210541D-03
 I=   20 X=   1.167843057236D-02 Y=  -1.706328619811D-04 Z=   0.000000000000D+00
 I=   21 X=  -7.839126461343D-05 Y=  -3.829205241992D-02 Z=  -1.315290901836D-03
 I=   22 X=  -3.791612048901D-02 Y=   7.543748409003D-05 Z=  -1.255017210589D-03
 I=   23 X=   0.000000000000D+00 Y=   0.000000000000D+00 Z=   1.773403125776D-02
 I=   24 X=   1.699251958023D-04 Y=   1.160102950477D-02 Z=   0.000000000000D+00
 I=   25 X=  -1.671341169813D-04 Y=   4.909557331479D-06 Z=   0.000000000000D+00
 I=   26 X=  -4.715054201788D-06 Y=  -1.716119320322D-04 Z=   0.000000000000D+00
 I=   27 X=  -1.683994502789D-08 Y=   9.110588846693D-08 Z=   0.000000000000D+00
 I=   28 X=   1.082625109958D-08 Y=   1.234829999402D-07 Z=   0.000000000000D+00
 I=   29 X=   1.082625078264D-08 Y=   1.234829982009D-07 Z=   0.000000000000D+00
 I=   30 X=   8.987205780725D-08 Y=   1.649782696979D-08 Z=   0.000000000000D+00
 I=   31 X=   1.223642145576D-07 Y=  -1.062053634813D-08 Z=   0.000000000000D+00
 I=   32 X=   1.223642142995D-07 Y=  -1.062053632606D-08 Z=   0.000000000000D+00
 I=   33 X=   9.436192990757D-05 Y=   4.808748170078D-07 Z=  -2.179108635808D-04
 I=   34 X=  -9.436192989779D-05 Y=  -4.808748423043D-07 Z=  -2.179108635501D-04
 I=   35 X=  -9.436192988017D-05 Y=  -4.808748171491D-07 Z=   2.179108634935D-04
 I=   36 X=   9.436192987416D-05 Y=   4.808748422273D-07 Z=   2.179108634778D-04
 l701 out
 I=    0 X=   0.000000000000D+00 Y=   0.000000000000D+00 Z=   0.000000000000D+00
 I=    1 X=  -4.657223682090D-01 Y=   2.013189746888D+01 Z=   2.928649246023D-07
 I=    2 X=   5.194154079238D-02 Y=   1.275255498393D+01 Z=  -2.177450552543D-08
 I=    3 X=   2.018614357181D+01 Y=   4.618150311409D-01 Z=  -2.399340457137D-08
 I=    4 X=   1.276509347471D+01 Y=  -4.030494538789D-02 Z=   0.000000000000D+00
 I=    5 X=  -6.037683359507D+00 Y=   3.243353162660D+00 Z=   0.000000000000D+00
 I=    6 X=   2.763124085170D+00 Y=   3.494630723116D+00 Z=   5.125495154469D+00
 I=    7 X=   2.763124096351D+00 Y=   3.494630729095D+00 Z=  -5.125495167538D+00
 I=    8 X=   3.239365427328D+00 Y=   6.039803124221D+00 Z=   0.000000000000D+00
 I=    9 X=   3.506954254066D+00 Y=  -2.766616247333D+00 Z=   5.118222463182D+00
 I=   10 X=   3.506954253622D+00 Y=  -2.766616246871D+00 Z=  -5.118222462335D+00
 I=   11 X=   2.691788311638D-01 Y=   1.167327591651D+01 Z=  -2.273659379895D+01
 I=   12 X=   2.691788277682D-01 Y=   1.167327601324D+01 Z=   2.273659356391D+01
 I=   13 X=   1.160976155403D+01 Y=  -2.696636796772D-01 Z=  -2.309792872913D+01
 I=   14 X=  -1.160976155436D+01 Y=   2.696636799638D-01 Z=  -2.309792872758D+01
 I=   15 X=   0.000000000000D+00 Y=   0.000000000000D+00 Z=  -1.333377908485D+01
 I=   16 X=   0.000000000000D+00 Y=  -6.920214854975D-08 Z=  -1.494065144567D+01
 I=   17 X=   0.000000000000D+00 Y=   6.916103525989D-08 Z=   1.494065144739D+01
 I=   18 X=  -2.691788282238D-01 Y=  -1.167327600415D+01 Z=  -2.273659357528D+01
 I=   19 X=   1.160976154160D+01 Y=  -2.696636802284D-01 Z=   2.309792874740D+01
 I=   20 X=  -2.018614357137D+01 Y=  -4.618150310736D-01 Z=  -2.817286810135D-08
 I=   21 X=  -2.691788307654D-01 Y=  -1.167327592560D+01 Z=   2.273659378763D+01
 I=   22 X=  -1.160976154123D+01 Y=   2.696636799223D-01 Z=   2.309792874940D+01
 I=   23 X=   0.000000000000D+00 Y=   0.000000000000D+00 Z=   1.333377908391D+01
 I=   24 X=   4.657223682637D-01 Y=  -2.013189746885D+01 Z=  -2.614026439158D-07
 I=   25 X=  -1.276509347488D+01 Y=   4.030494534318D-02 Z=   0.000000000000D+00
 I=   26 X=  -5.194154082554D-02 Y=  -1.275255498392D+01 Z=   1.853050958590D-08
 I=   27 X=   6.037683359522D+00 Y=  -3.243353162665D+00 Z=   0.000000000000D+00
 I=   28 X=  -2.763124085590D+00 Y=  -3.494630723672D+00 Z=  -5.125495155080D+00
 I=   29 X=  -2.763124095920D+00 Y=  -3.494630728553D+00 Z=   5.125495166908D+00
 I=   30 X=  -3.239365427352D+00 Y=  -6.039803124213D+00 Z=   0.000000000000D+00
 I=   31 X=  -3.506954253251D+00 Y=   2.766616246439D+00 Z=  -5.118222462077D+00
 I=   32 X=  -3.506954254439D+00 Y=   2.766616247768D+00 Z=   5.118222463465D+00
 I=   33 X=  -6.499381567193D+00 Y=  -3.786182516672D-02 Z=   5.070963102495D+00
 I=   34 X=   6.499381567113D+00 Y=   3.786182740025D-02 Z=   5.070963102437D+00
 I=   35 X=   6.499381567175D+00 Y=   3.786182516103D-02 Z=  -5.070963102538D+00
 I=   36 X=  -6.499381567064D+00 Y=  -3.786182740936D-02 Z=  -5.070963102421D+00
 Leave Link  701 at Sun Nov 24 22:13:00 2013, MaxMem=   33554432 cpu:       6.6
 (Enter /net/cottusp/opt/gaussian/g09revA02_amd64/g09/l702.exe)
 L702 exits ... SP integral derivatives will be done elsewhere.
 Leave Link  702 at Sun Nov 24 22:13:01 2013, MaxMem=   33554432 cpu:       0.0
 (Enter /net/cottusp/opt/gaussian/g09revA02_amd64/g09/l703.exe)
 Compute integral first derivatives, UseDBF=F ICtDFT=           0.
 Integral derivatives from FoFDir, PRISM(SPDF).
 ICntrl=      2127.
 Calling FoFJK, ICntrl=      2527 FMM=F ISym2X=0 I1Cent= 0 IOpClX= 0 NMat=1 NMatS=1 NMatT=0.
 FoFJK:  IHMeth= 1 ICntrl=  2527 DoSepK=F KAlg= 1 I1Cent= 0 FoldK=F
 FoFCou: FMM=F IPFlag=           0 FMFlag=      100000 FMFlg1=         800
         NFxFlg=           0 DoJE=F BraDBF=F KetDBF=F FulRan=T
         Omega=  0.000000  0.000000  1.000000  0.000000  0.000000 ICntrl=    2527 IOpCl=  0
         NMat0=    1 NMatS0=    1 NMatT0=    0 NMatD0=    1 NMtDS0=    0 NMtDT0=    0
         I1Cent=           0 NGrid=           0.
 Symmetry not used in FoFCou.
 FoFCou:  KetSym=F NOpSet=  1 NOpAb=1 NOp=  1.
 FoFCou:  CnvScl= 1.00D+00 Thresh= 1.00D-10
 PrismS was handed    32847419 working-precision words and  8370 shell-pairs
 LenC2 before Schwartz=        8371 after=        7913.
 FoFCou: LinMIO=F DoNuc=F BraDBF=F KetDBF=F HaveP=T PDBF=F HaveZ=T HaveW=F
         NIJTC =       6 NIJTAt=       0 NIJTCD=       0 NIJTT =       6
         IJTBeg=       1 IJTEnd=       6 KLTBeg=       1 KLTEnd=       6
         IPTBeg=       1 IPTEnd=       6 IPTBCv=       1 IPTECv=       6
         IZTBeg=       1 IZTEnd=       6 IZTBCv=       1 IZTECv=       6
         IWTBeg=       7 IWTEnd=       6 IWTBCv=       7 IWTECv=       6
         INTBeg=       1 INTEnd=       0 IFTBCv=       1 IFTECv=       6
 NCel replicated for PrismC:     1
 CoulSu:  NPrtUS=   2 ThrOK=T IAlg=1
 Enter PrismC: JobTyp=21 DoJE=F Cont=F.
 PrismC was handed    16300670 working-precision words and  7912 shell-pairs
 Enter PrismC: JobTyp=21 DoJE=F Cont=F.
 PrismC was handed    16300670 working-precision words and  7912 shell-pairs
 IPart=  1 NShTot=     9178909 NShNF=     9178909 NShFF=           0 NBatch=       60764 AvBLen=       151.1
 IPart=  0 NShTot=     9191044 NShNF=     9191044 NShFF=           0 NBatch=       60817 AvBLen=       151.1
 ReadGW:  IGet=0 IStart=           1 Next=       21831 LGW=       21830.
 Remaining memory in FofDFT       31.92 Mw
 Pruned (  99, 590) grid will be used in CalDFT.
 CkSvGd:  ISavGI=        -1 IRadAn=       5 IRASav=       5 ISavGd=        -1.
 CalDSu:  NPrtUS=   2 ThrOK=T IAlg=1
 IPart= 0 IRanGd=          0 ScrnBf=T ScrnGd=T RCrit=4.00D+00 DoMicB=T.
 CutRad = 1000.00    CtRdIn =    0.00    XCrit =  15.00   ICut = 0
 IPart= 1 IRanGd=          0 ScrnBf=T ScrnGd=T RCrit=4.00D+00 DoMicB=T.
 CutRad = 1000.00    CtRdIn =    0.00    XCrit =  15.00   ICut = 0
 Pruned (  99, 590) grid will be used in CalDFT.
 Pruned (  99, 590) grid will be used in CalDFT.
 Pruned (  99, 590) grid will be used in CalDFT.
 Pruned (  99, 590) grid will be used in CalDFT.
 Pruned (  99, 590) grid will be used in CalDFT.
 Pruned (  99, 590) grid will be used in CalDFT.
 Pruned (  99, 590) grid will be used in CalDFT.
 Pruned (  99, 590) grid will be used in CalDFT.
 Pruned (  99, 590) grid will be used in CalDFT.
 Pruned (  99, 590) grid will be used in CalDFT.
 Pruned (  99, 590) grid will be used in CalDFT.
 Pruned (  99, 590) grid will be used in CalDFT.
 Pruned (  99, 590) grid will be used in CalDFT.
 Pruned (  99, 590) grid will be used in CalDFT.
 Pruned (  99, 590) grid will be used in CalDFT.
 Pruned (  99, 590) grid will be used in CalDFT.
 Pruned (  99, 590) grid will be used in CalDFT.
 Pruned (  99, 590) grid will be used in CalDFT.
 Pruned (  99, 590) grid will be used in CalDFT.
 Pruned (  99, 590) grid will be used in CalDFT.
 Pruned (  99, 590) grid will be used in CalDFT.
 Pruned (  99, 590) grid will be used in CalDFT.
 Pruned (  99, 590) grid will be used in CalDFT.
 Pruned (  99, 590) grid will be used in CalDFT.
 Pruned (  99, 590) grid will be used in CalDFT.
 Pruned (  99, 590) grid will be used in CalDFT.
 Pruned (  99, 590) grid will be used in CalDFT.
 Pruned (  99, 590) grid will be used in CalDFT.
 Pruned (  99, 590) grid will be used in CalDFT.
 Pruned (  99, 590) grid will be used in CalDFT.
 Pruned (  99, 590) grid will be used in CalDFT.
 Pruned (  99, 590) grid will be used in CalDFT.
 Defaulting to unpruned grid for atomic number  45.
 Defaulting to unpruned grid for atomic number  45.
 Pruned (  99, 590) grid will be used in CalDFT.
 Pruned (  99, 590) grid will be used in CalDFT.
 Pruned (  99, 590) grid will be used in CalDFT.
 Pruned (  99, 590) grid will be used in CalDFT.
 Pruned (  99, 590) grid will be used in CalDFT.
 Pruned (  99, 590) grid will be used in CalDFT.
 Pruned (  99, 590) grid will be used in CalDFT.
 Pruned (  99, 590) grid will be used in CalDFT.
 Pruned (  99, 590) grid will be used in CalDFT.
 Pruned (  99, 590) grid will be used in CalDFT.
 Pruned (  99, 590) grid will be used in CalDFT.
 Pruned (  99, 590) grid will be used in CalDFT.
 Pruned (  99, 590) grid will be used in CalDFT.
 Pruned (  99, 590) grid will be used in CalDFT.
 Pruned (  99, 590) grid will be used in CalDFT.
 Pruned (  99, 590) grid will be used in CalDFT.
 Pruned (  99, 590) grid will be used in CalDFT.
 Pruned (  99, 590) grid will be used in CalDFT.
 Pruned (  99, 590) grid will be used in CalDFT.
 Pruned (  99, 590) grid will be used in CalDFT.
 Pruned (  99, 590) grid will be used in CalDFT.
 Pruned (  99, 590) grid will be used in CalDFT.
 Pruned (  99, 590) grid will be used in CalDFT.
 Pruned (  99, 590) grid will be used in CalDFT.
 Pruned (  99, 590) grid will be used in CalDFT.
 Pruned (  99, 590) grid will be used in CalDFT.
 Pruned (  99, 590) grid will be used in CalDFT.
 Pruned (  99, 590) grid will be used in CalDFT.
 Pruned (  99, 590) grid will be used in CalDFT.
 Pruned (  99, 590) grid will be used in CalDFT.
 Pruned (  99, 590) grid will be used in CalDFT.
 Pruned (  99, 590) grid will be used in CalDFT.
 Pruned (  99, 590) grid will be used in CalDFT.
 Pruned (  99, 590) grid will be used in CalDFT.
 Pruned (  99, 590) grid will be used in CalDFT.
 Pruned (  99, 590) grid will be used in CalDFT.
 Pruned (  99, 590) grid will be used in CalDFT.
 Pruned (  99, 590) grid will be used in CalDFT.
 Pruned (  99, 590) grid will be used in CalDFT.
 Pruned (  99, 590) grid will be used in CalDFT.
 IPart= 0       344833 of       422126 points in     437 batches and     1795 microbatches, Max-NSigAt=      36 Max-NSgAt2=      36
 IPart= 1       386191 of       466282 points in     485 batches and     2117 microbatches, Max-NSigAt=      36 Max-NSgAt2=      36
 Forces at end of L703
 I=    0 X=   0.000000000000D+00 Y=   0.000000000000D+00 Z=   0.000000000000D+00
 I=    1 X=   2.611999396773D-07 Y=  -1.002552316720D-07 Z=   0.000000000000D+00
 I=    2 X=  -3.900514772837D-07 Y=  -3.323338226835D-08 Z=   0.000000000000D+00
 I=    3 X=  -3.644219468413D-07 Y=  -3.220867833553D-08 Z=   0.000000000000D+00
 I=    4 X=  -5.025544158599D-07 Y=   0.000000000000D+00 Z=   0.000000000000D+00
 I=    5 X=   5.226822263893D-08 Y=   1.933158610967D-08 Z=   0.000000000000D+00
 I=    6 X=   2.276662236511D-08 Y=   7.883867825242D-08 Z=   1.817173842511D-07
 I=    7 X=   2.303702650863D-08 Y=   7.898101728188D-08 Z=  -1.824167181752D-07
 I=    8 X=   1.825779887277D-07 Y=   5.142793000346D-07 Z=   0.000000000000D+00
 I=    9 X=   1.124067048330D-07 Y=  -8.830746267563D-08 Z=   2.857836296499D-07
 I=   10 X=   1.123919641799D-07 Y=  -8.827361153152D-08 Z=  -2.857204490780D-07
 I=   11 X=   5.067729137997D-07 Y=  -1.882719757873D-08 Z=  -3.415833162990D-07
 I=   12 X=   5.066920649166D-07 Y=  -1.676297856079D-08 Z=   3.366283785056D-07
 I=   13 X=   2.502289078166D-07 Y=   6.690907576323D-07 Z=   4.423005073306D-07
 I=   14 X=  -2.502442377761D-07 Y=  -6.695688701819D-07 Z=   4.423405499665D-07
 I=   15 X=   0.000000000000D+00 Y=   0.000000000000D+00 Z=  -1.102469280312D-07
 I=   16 X=   0.000000000000D+00 Y=   0.000000000000D+00 Z=   6.965787235913D-08
 I=   17 X=   0.000000000000D+00 Y=   0.000000000000D+00 Z=  -6.968699572951D-08
 I=   18 X=  -5.066976810908D-07 Y=   1.691436679607D-08 Z=  -3.368776617663D-07
 I=   19 X=   2.499295685965D-07 Y=   6.695631064035D-07 Z=  -4.418744161683D-07
 I=   20 X=   3.644372661427D-07 Y=   3.221097111261D-08 Z=   0.000000000000D+00
 I=   21 X=  -5.067710261986D-07 Y=   1.867624987995D-08 Z=   3.413347329229D-07
 I=   22 X=  -2.499175941750D-07 Y=  -6.690841458101D-07 Z=  -4.418366081893D-07
 I=   23 X=   0.000000000000D+00 Y=   0.000000000000D+00 Z=   1.101934508085D-07
 I=   24 X=  -2.611995787438D-07 Y=   1.002555656271D-07 Z=   0.000000000000D+00
 I=   25 X=   5.025518916568D-07 Y=   0.000000000000D+00 Z=   0.000000000000D+00
 I=   26 X=   3.900500083961D-07 Y=   3.323367714358D-08 Z=   0.000000000000D+00
 I=   27 X=  -5.226664256952D-08 Y=  -1.933265414422D-08 Z=   0.000000000000D+00
 I=   28 X=  -2.277618049717D-08 Y=  -7.884742059261D-08 Z=  -1.817433554763D-07
 I=   29 X=  -2.302662860387D-08 Y=  -7.897271636637D-08 Z=   1.823908677423D-07
 I=   30 X=  -1.825791877685D-07 Y=  -5.142810763914D-07 Z=   0.000000000000D+00
 I=   31 X=  -1.123921631319D-07 Y=   8.828795872162D-08 Z=  -2.857330985151D-07
 I=   32 X=  -1.124061554947D-07 Y=   8.829196396221D-08 Z=   2.857697589675D-07
 I=   33 X=  -4.294123900905D-08 Y=   1.903503689393D-08 Z=  -7.391851575278D-08
 I=   34 X=   4.293489386242D-08 Y=  -1.926263377278D-08 Z=  -7.391894563114D-08
 I=   35 X=   4.292992272781D-08 Y=  -1.903524879387D-08 Z=   7.392111456284D-08
 I=   36 X=  -4.292225419533D-08 Y=   1.926293716203D-08 Z=   7.392253742466D-08
 Leave Link  703 at Sun Nov 24 22:14:11 2013, MaxMem=   33554432 cpu:     140.7
 (Enter /net/cottusp/opt/gaussian/g09revA02_amd64/g09/l716.exe)
 FrcOut:
 IF    =  2563 IFX   =  2803 IFXYZ =  2911
 IFFX  =  3019 IFFFX =  3019 IFLen =   240
 IFFLen=     0 IFFFLn=     0 IEDerv=  3019
 LEDerv=  5237 IFroze=  8260 ICStrt=122429
 Dipole        = 1.64232850D-10 3.17658920D-12 1.38747502D-09
 Quadrupole    =-1.58361035D+00-7.25394656D+00 8.83755691D+00
                 5.27683864D-02-5.97008771D-09-6.18920186D-07
 -------------------------------------------------------------------
 Center     Atomic                   Forces (Hartrees/Bohr)
 Number     Number              X              Y              Z
 -------------------------------------------------------------------
      1        6          -0.000000261    0.000000100   -0.000000005
      2        6           0.000000390    0.000000033    0.000000000
      3        6           0.000000364    0.000000032    0.000000000
      4        6           0.000000503   -0.000000009    0.000000000
      5        1          -0.000000052   -0.000000019    0.000000000
      6        1          -0.000000023   -0.000000079   -0.000000182
      7        1          -0.000000023   -0.000000079    0.000000182
      8        1          -0.000000183   -0.000000514    0.000000000
      9        1          -0.000000112    0.000000088   -0.000000286
     10        1          -0.000000112    0.000000088    0.000000286
     11        8          -0.000000507    0.000000019    0.000000342
     12        8          -0.000000507    0.000000017   -0.000000337
     13        8          -0.000000250   -0.000000669   -0.000000442
     14        8           0.000000250    0.000000670   -0.000000442
     15        8           0.000000000    0.000000000    0.000000110
     16       45           0.000000000    0.000000001   -0.000000070
     17       45           0.000000000   -0.000000001    0.000000070
     18        8           0.000000507   -0.000000017    0.000000337
     19        8          -0.000000250   -0.000000670    0.000000442
     20        6          -0.000000364   -0.000000032    0.000000001
     21        8           0.000000507   -0.000000019   -0.000000341
     22        8           0.000000250    0.000000669    0.000000442
     23        8           0.000000000    0.000000000   -0.000000110
     24        6           0.000000261   -0.000000100    0.000000005
     25        6          -0.000000503    0.000000009    0.000000000
     26        6          -0.000000390   -0.000000033    0.000000000
     27        1           0.000000052    0.000000019    0.000000000
     28        1           0.000000023    0.000000079    0.000000182
     29        1           0.000000023    0.000000079   -0.000000182
     30        1           0.000000183    0.000000514    0.000000000
     31        1           0.000000112   -0.000000088    0.000000286
     32        1           0.000000112   -0.000000088   -0.000000286
     33        1           0.000000043   -0.000000019    0.000000074
     34        1          -0.000000043    0.000000019    0.000000074
     35        1          -0.000000043    0.000000019   -0.000000074
     36        1           0.000000043   -0.000000019   -0.000000074
 -------------------------------------------------------------------
 Cartesian Forces:  Max     0.000000670 RMS     0.000000251
 Final forces over variables, Energy=-1.28610633D+03:
  0.00000000D+00 0.00000000D+00 0.00000000D+00 0.00000000D+00
  0.00000000D+00 0.00000000D+00 0.00000000D+00 0.00000000D+00
  0.00000000D+00 0.00000000D+00 0.00000000D+00 0.00000000D+00
  0.00000000D+00 0.00000000D+00 0.00000000D+00 0.00000000D+00
  0.00000000D+00 0.00000000D+00 0.00000000D+00 0.00000000D+00
  0.00000000D+00 0.00000000D+00 0.00000000D+00 0.00000000D+00
  0.00000000D+00 0.00000000D+00 0.00000000D+00 0.00000000D+00
  0.00000000D+00 0.00000000D+00 0.00000000D+00 0.00000000D+00
  0.00000000D+00 0.00000000D+00 0.00000000D+00 0.00000000D+00
  0.00000000D+00 0.00000000D+00 0.00000000D+00 0.00000000D+00
  0.00000000D+00 0.00000000D+00 0.00000000D+00 0.00000000D+00
  0.00000000D+00 0.00000000D+00 0.00000000D+00 0.00000000D+00
  0.00000000D+00 0.00000000D+00 0.00000000D+00 0.00000000D+00
  0.00000000D+00 0.00000000D+00 0.00000000D+00 0.00000000D+00
  0.00000000D+00 0.00000000D+00 0.00000000D+00 0.00000000D+00
  0.00000000D+00 0.00000000D+00 0.00000000D+00 0.00000000D+00
  0.00000000D+00 0.00000000D+00 0.00000000D+00 0.00000000D+00
  0.00000000D+00 0.00000000D+00 0.00000000D+00 0.00000000D+00
  0.00000000D+00 0.00000000D+00 0.00000000D+00 0.00000000D+00
  0.00000000D+00 0.00000000D+00 0.00000000D+00 0.00000000D+00
  0.00000000D+00 0.00000000D+00 0.00000000D+00 0.00000000D+00
  0.00000000D+00 0.00000000D+00 0.00000000D+00 0.00000000D+00
  0.00000000D+00 0.00000000D+00 0.00000000D+00 0.00000000D+00
  0.00000000D+00 0.00000000D+00 0.00000000D+00 0.00000000D+00
  0.00000000D+00 0.00000000D+00 0.00000000D+00 0.00000000D+00
  0.00000000D+00 0.00000000D+00 0.00000000D+00 0.00000000D+00
  0.00000000D+00 0.00000000D+00 0.00000000D+00 0.00000000D+00
  0.00000000D+00 0.00000000D+00 0.00000000D+00 0.00000000D+00
  0.00000000D+00 0.00000000D+00 0.00000000D+00 0.00000000D+00
  0.00000000D+00 0.00000000D+00 0.00000000D+00 0.00000000D+00
  0.00000000D+00 0.00000000D+00 0.00000000D+00 0.00000000D+00
  0.00000000D+00 0.00000000D+00 0.00000000D+00 0.00000000D+00
  0.00000000D+00 0.00000000D+00 0.00000000D+00 0.00000000D+00
  0.00000000D+00 0.00000000D+00 0.00000000D+00 0.00000000D+00
  0.00000000D+00 0.00000000D+00 0.00000000D+00 0.00000000D+00
  0.00000000D+00 0.00000000D+00 0.00000000D+00 0.00000000D+00
  0.00000000D+00 0.00000000D+00 0.00000000D+00 0.00000000D+00
  0.00000000D+00 0.00000000D+00 0.00000000D+00 0.00000000D+00
  0.00000000D+00 0.00000000D+00 0.00000000D+00 0.00000000D+00
  0.00000000D+00 0.00000000D+00 0.00000000D+00 0.00000000D+00
  0.00000000D+00 0.00000000D+00 0.00000000D+00 0.00000000D+00
  0.00000000D+00 0.00000000D+00 0.00000000D+00 0.00000000D+00
  0.00000000D+00 0.00000000D+00 0.00000000D+00 0.00000000D+00
  0.00000000D+00 0.00000000D+00 0.00000000D+00 0.00000000D+00
  0.00000000D+00 0.00000000D+00 0.00000000D+00 0.00000000D+00
  0.00000000D+00 0.00000000D+00 0.00000000D+00 0.00000000D+00
  0.00000000D+00 0.00000000D+00 0.00000000D+00 0.00000000D+00
  0.00000000D+00 0.00000000D+00 0.00000000D+00 0.00000000D+00
  0.00000000D+00 0.00000000D+00 0.00000000D+00 0.00000000D+00
  0.00000000D+00 0.00000000D+00 0.00000000D+00 0.00000000D+00
  0.00000000D+00 0.00000000D+00 0.00000000D+00 0.00000000D+00
  0.00000000D+00 0.00000000D+00 0.00000000D+00 0.00000000D+00
  0.00000000D+00 0.00000000D+00 0.00000000D+00 0.00000000D+00
  0.00000000D+00 0.00000000D+00 0.00000000D+00 0.00000000D+00
  0.00000000D+00 0.00000000D+00 0.00000000D+00 0.00000000D+00
  0.00000000D+00 0.00000000D+00 0.00000000D+00 0.00000000D+00
  0.00000000D+00 0.00000000D+00 0.00000000D+00 0.00000000D+00
  0.00000000D+00 0.00000000D+00 0.00000000D+00 0.00000000D+00
  0.00000000D+00 0.00000000D+00 0.00000000D+00 0.00000000D+00
  0.00000000D+00 0.00000000D+00 0.00000000D+00 0.00000000D+00
 Leave Link  716 at Sun Nov 24 22:14:11 2013, MaxMem=   33554432 cpu:       0.0
 (Enter /net/cottusp/opt/gaussian/g09revA02_amd64/g09/l103.exe)

 GradGradGradGradGradGradGradGradGradGradGradGradGradGradGradGradGradGrad
 Berny optimization.
 Internal  Forces:  Max     0.000000493 RMS     0.000000176
 Search for a local minimum.
 Step number   1 out of a maximum of  216
 All quantities printed in internal units (Hartrees-Bohrs-Radians)
 RMS Force = .17584D-06 SwitMx=.10000D-02 MixMth= 2
 Mixed Optimization -- En-DIIS/RFO-DIIS
 Second derivative matrix not updated -- first step.
     Eigenvalues ---    0.00230   0.00230   0.00230   0.00230   0.00397
     Eigenvalues ---    0.00511   0.00511   0.00515   0.00515   0.01149
     Eigenvalues ---    0.01206   0.01262   0.01264   0.01734   0.01738
     Eigenvalues ---    0.02168   0.02194   0.02251   0.02254   0.02640
     Eigenvalues ---    0.05176   0.05176   0.07206   0.07206   0.07207
     Eigenvalues ---    0.07207   0.07421   0.07421   0.07426   0.07426
     Eigenvalues ---    0.08475   0.09377   0.09377   0.10017   0.10020
     Eigenvalues ---    0.11449   0.13186   0.13652   0.13672   0.14817
     Eigenvalues ---    0.14817   0.14837   0.14838   0.14891   0.15297
     Eigenvalues ---    0.15482   0.16000   0.16000   0.16000   0.16000
     Eigenvalues ---    0.16000   0.16000   0.16000   0.16000   0.16000
     Eigenvalues ---    0.16000   0.16000   0.16000   0.16000   0.16000
     Eigenvalues ---    0.16000   0.16000   0.17475   0.17489   0.18566
     Eigenvalues ---    0.18572   0.24113   0.24303   0.24307   0.24422
     Eigenvalues ---    0.24997   0.24997   0.24997   0.24997   0.30438
     Eigenvalues ---    0.30438   0.30468   0.30468   0.33001   0.33001
     Eigenvalues ---    0.33002   0.33002   0.33499   0.33499   0.33499
     Eigenvalues ---    0.33499   0.33500   0.33500   0.33500   0.33500
     Eigenvalues ---    0.51079   0.51079   0.51079   0.51079   0.55580
     Eigenvalues ---    0.56741   0.56921   0.57832   0.62151   0.62194
     Eigenvalues ---    0.62249   0.622821000.000001000.000001000.00000
     Eigenvalues --- 1000.000001000.000001000.000001000.000001000.00000
     Eigenvalues --- 1000.000001000.000001000.000001000.000001000.00000
     Eigenvalues --- 1000.000001000.000001000.000001000.000001000.00000
     Eigenvalues --- 1000.000001000.000001000.000001000.000001000.00000
     Eigenvalues --- 1000.000001000.000001000.000001000.000001000.00000
     Eigenvalues --- 1000.000001000.000001000.000001000.000001000.00000
     Eigenvalues --- 1000.000001000.000001000.000001000.000001000.00000
     Eigenvalues --- 1000.000001000.000001000.000001000.000001000.00000
     Eigenvalues --- 1000.000001000.000001000.000001000.000001000.00000
     Eigenvalues --- 1000.000001000.000001000.000001000.000001000.00000
     Eigenvalues --- 1000.000001000.000001000.000001000.000001000.00000
     Eigenvalues --- 1000.000001000.000001000.000001000.000001000.00000
     Eigenvalues --- 1000.000001000.000001000.000001000.000001000.00000
     Eigenvalues --- 1000.000001000.000001000.000001000.000001000.00000
     Eigenvalues --- 1000.000001000.000001000.000001000.000001000.00000
     Eigenvalues --- 1000.000001000.000001000.000001000.000001000.00000
     Eigenvalues --- 1000.000001000.000001000.000001000.000001000.00000
     Eigenvalues --- 1000.000001000.000001000.000001000.000001000.00000
     Eigenvalues --- 1000.000001000.000001000.000001000.000001000.00000
     Eigenvalues --- 1000.000001000.000001000.000001000.000001000.00000
     Eigenvalues --- 1000.000001000.000001000.000001000.000001000.00000
     Eigenvalues --- 1000.000001000.000001000.000001000.000001000.00000
     Eigenvalues --- 1000.000001000.000001000.000001000.000001000.00000
     Eigenvalues --- 1000.000001000.000001000.000001000.000001000.00000
     Eigenvalues --- 1000.000001000.000001000.000001000.000001000.00000
     Eigenvalues --- 1000.000001000.000001000.000001000.000001000.00000
     Eigenvalues --- 1000.000001000.000001000.000001000.000001000.00000
 RFO step:  Lambda= 0.00000000D+00 EMin= 2.30000000D-03
 Linear search not attempted -- first point.
 Iteration  1 RMS(Cart)=  0.00000817 RMS(Int)=  0.00000000
 Iteration  2 RMS(Cart)=  0.00000000 RMS(Int)=  0.00000000
 Variable       Old X    -DE/DX   Delta X   Delta X   Delta X     New X
                                 (Linear)    (Quad)   (Total)
    R1        2.87099   0.00000   0.00000   0.00000   0.00000   2.87099
    R2        2.48369   0.00000   0.00000   0.00000   0.00000   2.48369
    R3        2.48369   0.00000   0.00000   0.00000   0.00000   2.48369
    R4        2.09050   0.00000   0.00000   0.00000   0.00000   2.09050
    R5        2.08185   0.00000   0.00000   0.00000   0.00000   2.08185
    R6        2.08185   0.00000   0.00000   0.00000   0.00000   2.08185
    R7        2.87039   0.00000   0.00000   0.00000   0.00000   2.87039
    R8        2.48397   0.00000   0.00000   0.00000   0.00000   2.48397
    R9        2.48397   0.00000   0.00000   0.00000   0.00000   2.48397
   R10        2.09048   0.00000   0.00000   0.00000   0.00000   2.09048
   R11        2.08183   0.00000   0.00000   0.00000   0.00000   2.08183
   R12        2.08183   0.00000   0.00000   0.00000   0.00000   2.08183
   R13        3.92528   0.00000   0.00000   0.00000   0.00000   3.92528
   R14        3.92528   0.00000   0.00000   0.00000   0.00000   3.92528
   R15        3.92426   0.00000   0.00000   0.00000   0.00000   3.92426
   R16        3.92426   0.00000   0.00000   0.00000   0.00000   3.92426
   R17        2.48397   0.00000   0.00000   0.00000   0.00000   2.48397
   R18        4.29929   0.00000   0.00000   0.00000   0.00000   4.29929
   R19        1.85491   0.00000   0.00000   0.00000   0.00000   1.85491
   R20        1.85491   0.00000   0.00000   0.00000   0.00000   1.85491
   R21        4.63024   0.00000   0.00000   0.00000   0.00000   4.63025
   R22        3.92528   0.00000   0.00000   0.00000   0.00000   3.92528
   R23        3.92426   0.00000   0.00000   0.00000   0.00000   3.92426
   R24        3.92528   0.00000   0.00000   0.00000   0.00000   3.92528
   R25        3.92426   0.00000   0.00000   0.00000   0.00000   3.92426
   R26        4.29929   0.00000   0.00000   0.00000   0.00000   4.29929
   R27        2.48369   0.00000   0.00000   0.00000   0.00000   2.48369
   R28        2.48397   0.00000   0.00000   0.00000   0.00000   2.48397
   R29        2.87039   0.00000   0.00000   0.00000   0.00000   2.87039
   R30        2.48369   0.00000   0.00000   0.00000   0.00000   2.48369
   R31        1.85491   0.00000   0.00000   0.00000   0.00000   1.85491
   R32        1.85491   0.00000   0.00000   0.00000   0.00000   1.85491
   R33        2.87099   0.00000   0.00000   0.00000   0.00000   2.87099
   R34        2.09048   0.00000   0.00000   0.00000   0.00000   2.09048
   R35        2.08183   0.00000   0.00000   0.00000   0.00000   2.08183
   R36        2.08183   0.00000   0.00000   0.00000   0.00000   2.08183
   R37        2.09050   0.00000   0.00000   0.00000   0.00000   2.09050
   R38        2.08185   0.00000   0.00000   0.00000   0.00000   2.08185
   R39        2.08185   0.00000   0.00000   0.00000   0.00000   2.08185
    A1        2.04744   0.00000   0.00000   0.00000   0.00000   2.04744
    A2        2.04744   0.00000   0.00000   0.00000   0.00000   2.04744
    A3        2.18810   0.00000   0.00000   0.00000   0.00000   2.18810
    A4        1.90863   0.00000   0.00000   0.00000   0.00000   1.90863
    A5        1.92162   0.00000   0.00000   0.00000   0.00000   1.92162
    A6        1.92162   0.00000   0.00000   0.00000   0.00000   1.92162
    A7        1.88966   0.00000   0.00000   0.00000   0.00000   1.88966
    A8        1.88966   0.00000   0.00000   0.00000   0.00000   1.88966
    A9        1.93195   0.00000   0.00000   0.00000   0.00000   1.93195
   A10        2.04856   0.00000   0.00000   0.00000   0.00000   2.04856
   A11        2.04856   0.00000   0.00000   0.00000   0.00000   2.04856
   A12        2.18585   0.00000   0.00000   0.00000   0.00000   2.18585
   A13        1.90887   0.00000   0.00000   0.00000   0.00000   1.90887
   A14        1.92220   0.00000   0.00000   0.00000   0.00000   1.92220
   A15        1.92220   0.00000   0.00000   0.00000   0.00000   1.92220
   A16        1.88994   0.00000   0.00000   0.00000   0.00000   1.88994
   A17        1.88994   0.00000   0.00000   0.00000   0.00000   1.88994
   A18        1.93001   0.00000   0.00000   0.00000   0.00000   1.93001
   A19        2.07510   0.00000   0.00000   0.00000   0.00000   2.07510
   A20        2.07510   0.00000   0.00000   0.00000   0.00000   2.07510
   A21        2.07650   0.00000   0.00000   0.00000   0.00000   2.07650
   A22        2.07650   0.00000   0.00000   0.00000   0.00000   2.07650
   A23        2.14985   0.00000   0.00000   0.00000   0.00000   2.14985
   A24        2.14985   0.00000   0.00000   0.00000   0.00000   2.14985
   A25        1.98349   0.00000   0.00000   0.00000   0.00000   1.98349
   A26        1.56987   0.00000   0.00000   0.00001   0.00001   1.56988
   A27        1.57018   0.00000   0.00000  -0.00001  -0.00001   1.57017
   A28        1.59841   0.00000   0.00000   0.00000   0.00000   1.59841
   A29        1.54318   0.00000   0.00000   0.00000   0.00000   1.54318
   A30        1.59868   0.00000   0.00000   0.00000   0.00000   1.59868
   A31        1.54291   0.00000   0.00000   0.00000   0.00000   1.54291
   A32        1.57018   0.00000   0.00000  -0.00001  -0.00001   1.57017
   A33        1.59868   0.00000   0.00000   0.00000   0.00000   1.59868
   A34        1.54291   0.00000   0.00000   0.00000   0.00000   1.54291
   A35        1.56987   0.00000   0.00000   0.00001   0.00001   1.56988
   A36        1.59841   0.00000   0.00000   0.00000   0.00000   1.59841
   A37        1.54318   0.00000   0.00000   0.00000   0.00000   1.54318
   A38        1.54318   0.00000   0.00000   0.00000   0.00000   1.54318
   A39        1.56987   0.00000   0.00000   0.00001   0.00001   1.56988
   A40        1.57018   0.00000   0.00000  -0.00001  -0.00001   1.57017
   A41        1.59841   0.00000   0.00000   0.00000   0.00000   1.59841
   A42        1.54291   0.00000   0.00000   0.00000   0.00000   1.54291
   A43        1.54318   0.00000   0.00000   0.00000   0.00000   1.54318
   A44        1.54291   0.00000   0.00000   0.00000   0.00000   1.54291
   A45        1.57018   0.00000   0.00000  -0.00001  -0.00001   1.57017
   A46        1.59868   0.00000   0.00000   0.00000   0.00000   1.59868
   A47        1.56987   0.00000   0.00000   0.00001   0.00001   1.56988
   A48        1.59841   0.00000   0.00000   0.00000   0.00000   1.59841
   A49        1.59868   0.00000   0.00000   0.00000   0.00000   1.59868
   A50        2.07510   0.00000   0.00000   0.00000   0.00000   2.07510
   A51        2.07650   0.00000   0.00000   0.00000   0.00000   2.07650
   A52        2.18585   0.00000   0.00000   0.00000   0.00000   2.18585
   A53        2.04856   0.00000   0.00000   0.00000   0.00000   2.04856
   A54        2.04856   0.00000   0.00000   0.00000   0.00000   2.04856
   A55        2.07510   0.00000   0.00000   0.00000   0.00000   2.07510
   A56        2.07650   0.00000   0.00000   0.00000   0.00000   2.07650
   A57        2.14985   0.00000   0.00000   0.00000   0.00000   2.14985
   A58        2.14985   0.00000   0.00000   0.00000   0.00000   2.14985
   A59        1.98349   0.00000   0.00000   0.00000   0.00000   1.98349
   A60        2.18810   0.00000   0.00000   0.00000   0.00000   2.18810
   A61        2.04744   0.00000   0.00000   0.00000   0.00000   2.04744
   A62        2.04744   0.00000   0.00000   0.00000   0.00000   2.04744
   A63        1.90887   0.00000   0.00000   0.00000   0.00000   1.90887
   A64        1.92220   0.00000   0.00000   0.00000   0.00000   1.92220
   A65        1.92220   0.00000   0.00000   0.00000   0.00000   1.92220
   A66        1.88994   0.00000   0.00000   0.00000   0.00000   1.88994
   A67        1.88994   0.00000   0.00000   0.00000   0.00000   1.88994
   A68        1.93001   0.00000   0.00000   0.00000   0.00000   1.93001
   A69        1.90863   0.00000   0.00000   0.00000   0.00000   1.90863
   A70        1.92162   0.00000   0.00000   0.00000   0.00000   1.92162
   A71        1.92162   0.00000   0.00000   0.00000   0.00000   1.92162
   A72        1.88966   0.00000   0.00000   0.00000   0.00000   1.88966
   A73        1.88966   0.00000   0.00000   0.00000   0.00000   1.88966
   A74        1.93195   0.00000   0.00000   0.00000   0.00000   1.93195
    D1        1.56036   0.00000   0.00000   0.00000   0.00000   1.56036
    D2       -2.64865   0.00000   0.00000   0.00000   0.00000  -2.64865
    D3       -0.51381   0.00000   0.00000   0.00000   0.00000  -0.51381
    D4       -1.56036   0.00000   0.00000   0.00000   0.00000  -1.56036
    D5        0.51381   0.00000   0.00000   0.00000   0.00000   0.51381
    D6        2.64865   0.00000   0.00000   0.00000   0.00000   2.64865
    D7       -3.10255   0.00000   0.00000   0.00000   0.00000  -3.10255
    D8        0.01629   0.00000   0.00000   0.00000   0.00000   0.01630
    D9        3.10255   0.00000   0.00000   0.00000   0.00000   3.10255
   D10       -0.01629   0.00000   0.00000   0.00000   0.00000  -0.01630
   D11        1.56016   0.00000   0.00000   0.00000   0.00000   1.56016
   D12       -2.64802   0.00000   0.00000   0.00000   0.00000  -2.64802
   D13       -0.51485   0.00000   0.00000   0.00000   0.00000  -0.51485
   D14       -1.56016   0.00000   0.00000   0.00000   0.00000  -1.56016
   D15        0.51485   0.00000   0.00000   0.00000   0.00000   0.51485
   D16        2.64802   0.00000   0.00000   0.00000   0.00000   2.64802
   D17       -3.10195   0.00000   0.00000   0.00000   0.00000  -3.10195
   D18        0.01651   0.00000   0.00000   0.00000   0.00000   0.01651
   D19        3.10195   0.00000   0.00000   0.00000   0.00000   3.10195
   D20       -0.01651   0.00000   0.00000   0.00000   0.00000  -0.01651
   D21       -1.55040   0.00000   0.00000   0.00000   0.00000  -1.55041
   D22        1.53544   0.00000   0.00000   0.00000   0.00000   1.53543
   D23        3.13411   0.00000   0.00000   0.00000   0.00000   3.13411
   D24       -0.00748   0.00000   0.00000   0.00000   0.00000  -0.00748
   D25       -0.01474   0.00000   0.00000   0.00000   0.00000  -0.01474
   D26        0.00748   0.00000   0.00000   0.00000   0.00000   0.00748
   D27        1.55040   0.00000   0.00000   0.00000   0.00000   1.55041
   D28       -1.53544   0.00000   0.00000   0.00000   0.00000  -1.53543
   D29       -3.13411   0.00000   0.00000   0.00000   0.00000  -3.13411
   D30        0.01474   0.00000   0.00000   0.00000   0.00000   0.01474
   D31        1.53560   0.00000   0.00000   0.00000   0.00000   1.53560
   D32        3.13400   0.00000   0.00000   0.00000   0.00000   3.13400
   D33       -0.00760   0.00000   0.00000   0.00000   0.00000  -0.00759
   D34       -1.55078   0.00000   0.00000   0.00000   0.00000  -1.55078
   D35       -1.55078   0.00000   0.00000   0.00000   0.00000  -1.55078
   D36        3.13400   0.00000   0.00000   0.00000   0.00000   3.13400
   D37       -0.00760   0.00000   0.00000   0.00000   0.00000  -0.00759
   D38        1.53560   0.00000   0.00000   0.00000   0.00000   1.53560
   D39        0.01651   0.00000   0.00000   0.00000   0.00000   0.01651
   D40       -3.10195   0.00000   0.00000   0.00000   0.00000  -3.10195
   D41        1.56501   0.00000   0.00000   0.00000   0.00000   1.56501
   D42       -0.00564   0.00000   0.00000  -0.00001  -0.00001  -0.00564
   D43        3.13596   0.00000   0.00000  -0.00001  -0.00001   3.13595
   D44       -1.57659   0.00000   0.00000   0.00000   0.00000  -1.57659
   D45       -1.57659   0.00000   0.00000   0.00000   0.00000  -1.57659
   D46        3.13596   0.00000   0.00000  -0.00001  -0.00001   3.13595
   D47       -0.00564   0.00000   0.00000  -0.00001  -0.00001  -0.00564
   D48        1.56501   0.00000   0.00000   0.00000   0.00000   1.56501
   D49        1.56501   0.00000   0.00000   0.00000   0.00000   1.56501
   D50       -0.00564   0.00000   0.00000  -0.00001  -0.00001  -0.00564
   D51       -1.57659   0.00000   0.00000   0.00000   0.00000  -1.57659
   D52        3.13596   0.00000   0.00000  -0.00001  -0.00001   3.13595
   D53       -1.57659   0.00000   0.00000   0.00000   0.00000  -1.57659
   D54        3.13596   0.00000   0.00000  -0.00001  -0.00001   3.13595
   D55        1.56501   0.00000   0.00000   0.00000   0.00000   1.56501
   D56       -0.00564   0.00000   0.00000  -0.00001  -0.00001  -0.00564
   D57        3.14159   0.00000   0.00000   0.00000   0.00000   3.14159
   D58        0.00000   0.00000   0.00000   0.00000   0.00000   0.00000
   D59        0.00000   0.00000   0.00000   0.00000   0.00000   0.00000
   D60        3.14159   0.00000   0.00000   0.00000   0.00000   3.14159
   D61        0.00000   0.00000   0.00000   0.00000   0.00000   0.00000
   D62       -1.57064   0.00000   0.00000  -0.00001  -0.00001  -1.57065
   D63        3.14159   0.00000   0.00000   0.00000   0.00000   3.14159
   D64        1.57095   0.00000   0.00000  -0.00001  -0.00001   1.57094
   D65        1.57064   0.00000   0.00000   0.00001   0.00001   1.57065
   D66        0.00000   0.00000   0.00000   0.00000   0.00000   0.00000
   D67       -1.57095   0.00000   0.00000   0.00001   0.00001  -1.57094
   D68        3.14159   0.00000   0.00000   0.00000   0.00000   3.14159
   D69       -1.57095   0.00000   0.00000   0.00001   0.00001  -1.57094
   D70        3.14159   0.00000   0.00000   0.00000   0.00000   3.14159
   D71        1.57064   0.00000   0.00000   0.00001   0.00001   1.57065
   D72        0.00000   0.00000   0.00000   0.00000   0.00000   0.00000
   D73        3.14159   0.00000   0.00000   0.00000   0.00000   3.14159
   D74        1.57095   0.00000   0.00000  -0.00001  -0.00001   1.57094
   D75        0.00000   0.00000   0.00000   0.00000   0.00000   0.00000
   D76       -1.57064   0.00000   0.00000  -0.00001  -0.00001  -1.57065
   D77        1.53544   0.00000   0.00000   0.00000   0.00000   1.53543
   D78       -1.55040   0.00000   0.00000   0.00000   0.00000  -1.55041
   D79        3.13411   0.00000   0.00000   0.00000   0.00000   3.13411
   D80       -0.00748   0.00000   0.00000   0.00000   0.00000  -0.00748
   D81        1.57659   0.00000   0.00000   0.00000   0.00000   1.57659
   D82       -1.56501   0.00000   0.00000   0.00000   0.00000  -1.56501
   D83       -3.13596   0.00000   0.00000   0.00001   0.00001  -3.13595
   D84        0.00564   0.00000   0.00000   0.00001   0.00001   0.00564
   D85        0.00564   0.00000   0.00000   0.00001   0.00001   0.00564
   D86       -3.13596   0.00000   0.00000   0.00001   0.00001  -3.13595
   D87       -1.56501   0.00000   0.00000   0.00000   0.00000  -1.56501
   D88        1.57659   0.00000   0.00000   0.00000   0.00000   1.57659
   D89       -1.53560   0.00000   0.00000   0.00000   0.00000  -1.53560
   D90        0.00760   0.00000   0.00000   0.00000   0.00000   0.00759
   D91        1.55078   0.00000   0.00000   0.00000   0.00000   1.55078
   D92       -3.13400   0.00000   0.00000   0.00000   0.00000  -3.13400
   D93        0.01497   0.00000   0.00000   0.00000   0.00000   0.01496
   D94        0.00748   0.00000   0.00000   0.00000   0.00000   0.00748
   D95       -1.53544   0.00000   0.00000   0.00000   0.00000  -1.53543
   D96        1.55040   0.00000   0.00000   0.00000   0.00000   1.55041
   D97       -3.13411   0.00000   0.00000   0.00000   0.00000  -3.13411
   D98        1.55078   0.00000   0.00000   0.00000   0.00000   1.55078
   D99        0.00760   0.00000   0.00000   0.00000   0.00000   0.00759
   D100      -1.53560   0.00000   0.00000   0.00000   0.00000  -1.53560
   D101      -3.13400   0.00000   0.00000   0.00000   0.00000  -3.13400
   D102       1.57659   0.00000   0.00000   0.00000   0.00000   1.57659
   D103      -1.56501   0.00000   0.00000   0.00000   0.00000  -1.56501
   D104      -3.13596   0.00000   0.00000   0.00001   0.00001  -3.13595
   D105       0.00564   0.00000   0.00000   0.00001   0.00001   0.00564
   D106      -1.56501   0.00000   0.00000   0.00000   0.00000  -1.56501
   D107       1.57659   0.00000   0.00000   0.00000   0.00000   1.57659
   D108       0.00564   0.00000   0.00000   0.00001   0.00001   0.00564
   D109      -3.13596   0.00000   0.00000   0.00001   0.00001  -3.13595
   D110       0.01629   0.00000   0.00000   0.00000   0.00000   0.01630
   D111      -3.10255   0.00000   0.00000   0.00000   0.00000  -3.10255
   D112      -0.01651   0.00000   0.00000   0.00000   0.00000  -0.01651
   D113       3.10195   0.00000   0.00000   0.00000   0.00000   3.10195
   D114       1.56016   0.00000   0.00000   0.00000   0.00000   1.56016
   D115      -0.51485   0.00000   0.00000   0.00000   0.00000  -0.51485
   D116      -2.64802   0.00000   0.00000   0.00000   0.00000  -2.64802
   D117      -1.56016   0.00000   0.00000   0.00000   0.00000  -1.56016
   D118       2.64802   0.00000   0.00000   0.00000   0.00000   2.64802
   D119       0.51485   0.00000   0.00000   0.00000   0.00000   0.51485
   D120      -0.01629   0.00000   0.00000   0.00000   0.00000  -0.01630
   D121       3.10255   0.00000   0.00000   0.00000   0.00000   3.10255
   D122       1.56036   0.00000   0.00000   0.00000   0.00000   1.56036
   D123      -0.51381   0.00000   0.00000   0.00000   0.00000  -0.51381
   D124      -2.64865   0.00000   0.00000   0.00000   0.00000  -2.64865
   D125      -1.56036   0.00000   0.00000   0.00000   0.00000  -1.56036
   D126       2.64865   0.00000   0.00000   0.00000   0.00000   2.64865
   D127       0.51381   0.00000   0.00000   0.00000   0.00000   0.51381
         Item               Value     Threshold  Converged?
 Maximum Force            0.000000     0.000002     YES
 RMS     Force            0.000000     0.000001     YES
 Maximum Displacement     0.000032     0.000006     NO 
 RMS     Displacement     0.000008     0.000004     NO 
 Predicted change in Energy=-3.381417D-11
 GradGradGradGradGradGradGradGradGradGradGradGradGradGradGradGradGradGrad

 Leave Link  103 at Sun Nov 24 22:14:11 2013, MaxMem=   33554432 cpu:       0.5
 (Enter /net/cottusp/opt/gaussian/g09revA02_amd64/g09/l202.exe)
                          Input orientation:                          
 ---------------------------------------------------------------------
 Center     Atomic      Atomic             Coordinates (Angstroms)
 Number     Number       Type             X           Y           Z
 ---------------------------------------------------------------------
      1          6           0       -0.008617    2.679440    0.000000
      2          6           0       -0.060997    4.197799    0.000000
      3          6           0        2.680261    0.009139    0.000000
      4          6           0        4.198269    0.062506    0.000000
      5          1           0       -1.116730    4.528254    0.000000
      6          1           0        0.424712    4.593389    0.906235
      7          1           0        0.424712    4.593389   -0.906235
      8          1           0        4.528278    1.118371    0.000000
      9          1           0        4.594799   -0.423565    0.905619
     10          1           0        4.594799   -0.423565   -0.905619
     11          8           0       -0.000006    2.076379   -1.167756
     12          8           0       -0.000006    2.076379    1.167756
     13          8           0        2.075820    0.000314   -1.167207
     14          8           0       -2.075820   -0.000314   -1.167207
     15          8           0        0.000000    0.000000   -3.500195
     16         45           0        0.000000    0.000000   -1.225110
     17         45           0        0.000000    0.000000    1.225110
     18          8           0        0.000006   -2.076379   -1.167756
     19          8           0        2.075820    0.000314    1.167207
     20          6           0       -2.680261   -0.009139    0.000000
     21          8           0        0.000006   -2.076379    1.167756
     22          8           0       -2.075820   -0.000314    1.167207
     23          8           0        0.000000    0.000000    3.500195
     24          6           0        0.008617   -2.679440    0.000000
     25          6           0       -4.198269   -0.062506    0.000000
     26          6           0        0.060997   -4.197799    0.000000
     27          1           0        1.116730   -4.528254    0.000000
     28          1           0       -0.424712   -4.593389   -0.906235
     29          1           0       -0.424712   -4.593389    0.906235
     30          1           0       -4.528278   -1.118371    0.000000
     31          1           0       -4.594799    0.423565   -0.905619
     32          1           0       -4.594799    0.423565    0.905619
     33          1           0       -0.821551   -0.004758    4.037344
     34          1           0        0.821551    0.004758    4.037344
     35          1           0        0.821551    0.004758   -4.037344
     36          1           0       -0.821551   -0.004758   -4.037344
 ---------------------------------------------------------------------
                    Distance matrix (angstroms):
                    1          2          3          4          5
     1  C    0.000000
     2  C    1.519262   0.000000
     3  C    3.789535   5.005933   0.000000
     4  C    4.954415   5.936496   1.518945   0.000000
     5  H    2.155465   1.106243   5.902503   6.942054   0.000000
     6  H    2.161535   1.101665   5.188845   5.965726   1.789287
     7  H    2.161535   1.101665   5.188845   5.965726   1.789287
     8  H    4.797952   5.526691   2.155357   1.106235   6.594954
     9  H    5.624964   6.622204   2.161674   1.101657   7.613293
    10  H    5.624964   6.622204   2.161674   1.101657   7.613293
    11  O    1.314310   2.422353   3.580638   4.800505   2.936395
    12  O    1.314310   2.422353   3.580638   4.800505   2.936395
    13  O    3.589563   4.852550   1.314458   2.423021   5.661889
    14  O    3.580054   4.800629   4.897221   6.382046   4.773903
    15  O    4.408043   5.465949   4.408543   5.466327   5.831255
    16  Rh   2.946246   4.373343   2.946995   4.373815   4.822143
    17  Rh   2.946246   4.373343   2.946995   4.373815   4.822143
    18  O    4.897095   6.382216   3.591212   4.854265   6.799407
    19  O    3.589563   4.852550   1.314458   2.423021   5.661889
    20  C    3.790269   4.955691   5.360554   6.878903   4.799225
    21  O    4.897095   6.382216   3.591212   4.854265   6.799407
    22  O    3.580054   4.800628   4.897221   6.382046   4.773903
    23  O    4.408043   5.465949   4.408543   5.466327   5.831255
    24  C    5.358908   6.877591   3.790269   5.007140   7.295016
    25  C    5.007140   5.938621   6.878903   8.397468   5.529101
    26  C    6.877591   8.396484   4.955691   5.938621   8.805171
    27  H    7.295016   8.805171   4.799225   5.529101   9.327844
    28  H    7.340875   8.845255   5.625423   6.623486   9.192634
    29  H    7.340875   8.845255   5.625423   6.623486   9.192634
    30  H    5.903449   6.943937   7.296185   8.806082   6.597199
    31  H    5.190586   5.968278   7.342915   8.846951   5.455784
    32  H    5.190586   5.968278   7.342915   8.846951   5.455784
    33  H    4.915885   5.877080   5.344439   6.442302   6.077456
    34  H    4.913577   5.887327   4.444656   5.263621   6.365461
    35  H    4.913577   5.887327   4.444656   5.263621   6.365461
    36  H    4.915885   5.877080   5.344439   6.442302   6.077456
                    6          7          8          9         10
     6  H    0.000000
     7  H    1.812469   0.000000
     8  H    5.453097   5.453097   0.000000
     9  H    6.523761   6.770692   1.789452   0.000000
    10  H    6.770692   6.523761   1.789452   1.811237   0.000000
    11  O    3.288945   2.565954   4.773551   5.626796   5.237430
    12  O    2.565954   3.288945   4.773551   5.237430   5.626796
    13  O    5.302986   4.887802   2.937171   3.289611   2.567754
    14  O    5.626182   5.236685   6.799113   6.998065   6.689150
    15  O    6.379360   5.292281   5.831588   6.379873   5.293715
    16  Rh   5.081558   4.623990   4.822546   5.082479   4.625328
    17  Rh   4.623990   5.081558   4.822546   4.625328   5.082479
    18  O    6.997687   6.688391   5.663509   5.304979   4.890055
    19  O    4.887802   5.302986   2.937171   2.567754   3.289611
    20  C    5.625423   5.625423   7.296185   7.342915   7.342915
    21  O    6.688391   6.997687   5.663509   4.890055   5.304979
    22  O    5.236685   5.626182   6.799113   6.689150   6.998065
    23  O    5.292281   6.379360   5.831588   5.293715   6.379873
    24  C    7.340875   7.340875   5.903449   5.190586   5.190586
    25  C    6.623486   6.623486   8.806082   8.846951   8.846951
    26  C    8.845255   8.845255   6.943937   5.968278   5.968278
    27  H    9.192634   9.192634   6.597199   5.455784   5.455784
    28  H    9.402311   9.225964   7.614301   6.772424   6.525559
    29  H    9.225964   9.402311   7.614301   6.525559   6.772425
    30  H    7.614301   7.614301   9.328677   9.194207   9.194207
    31  H    6.772425   6.525559   9.194207   9.404623   9.228562
    32  H    6.525559   6.772424   9.194207   9.228562   9.404623
    33  H    5.700875   6.865500   6.795751   6.270562   7.344734
    34  H    5.569278   6.756625   5.592862   4.922252   6.233277
    35  H    6.756625   5.569278   5.592862   6.233277   4.922252
    36  H    6.865500   5.700875   6.795751   7.344734   6.270562
                   11         12         13         14         15
    11  O    0.000000
    12  O    2.335511   0.000000
    13  O    2.935830   3.751153   0.000000
    14  O    2.936266   3.751494   4.151640   0.000000
    15  O    3.122759   5.108925   3.122797   3.122797   0.000000
    16  Rh   2.077171   3.168147   2.076627   2.076627   2.275085
    17  Rh   3.168147   2.077171   3.167367   3.167367   4.725305
    18  O    4.152758   4.764453   2.936266   2.935830   3.122759
    19  O    3.751153   2.935830   2.334415   4.762941   5.108197
    20  C    3.591212   3.591212   4.897221   1.314458   4.408543
    21  O    4.764453   4.152758   3.751494   3.751153   5.108925
    22  O    3.751494   2.936266   4.762941   2.334415   5.108197
    23  O    5.108925   3.122759   5.108197   5.108197   7.000391
    24  C    4.897095   4.897095   3.580054   3.589563   4.408043
    25  C    4.854265   4.854265   6.382046   2.423021   5.466327
    26  C    6.382216   6.382216   4.800629   4.852550   5.465949
    27  H    6.799407   6.799407   4.773903   5.661889   5.831255
    28  H    6.688391   6.997687   5.236685   4.887802   5.292281
    29  H    6.997687   6.688391   5.626182   5.302986   6.379360
    30  H    5.663509   5.663509   6.799113   2.937171   5.831588
    31  H    4.890055   5.304979   6.689150   2.567754   5.293715
    32  H    5.304979   4.890055   6.998065   3.289611   6.379873
    33  H    5.665609   3.638764   5.956688   5.353556   7.582180
    34  H    5.662122   3.633332   5.353556   5.956688   7.582180
    35  H    3.633332   5.662122   3.132234   4.078292   0.981579
    36  H    3.638764   5.665609   4.078292   3.132234   0.981579
                   16         17         18         19         20
    16  Rh   0.000000
    17  Rh   2.450220   0.000000
    18  O    2.077171   3.168147   0.000000
    19  O    3.167367   2.076627   3.751494   0.000000
    20  C    2.946995   2.946995   3.580638   4.897221   0.000000
    21  O    3.168147   2.077171   2.335511   2.936266   3.580638
    22  O    3.167367   2.076627   3.751153   4.151640   1.314458
    23  O    4.725305   2.275085   5.108925   3.122797   4.408543
    24  C    2.946246   2.946246   1.314310   3.580054   3.789535
    25  C    4.373815   4.373815   4.800505   6.382046   1.518945
    26  C    4.373343   4.373343   2.422353   4.800628   5.005933
    27  H    4.822143   4.822143   2.936395   4.773903   5.902503
    28  H    4.623990   5.081558   2.565954   5.626182   5.188845
    29  H    5.081558   4.623990   3.288945   5.236685   5.188845
    30  H    4.822546   4.822546   4.773551   6.799113   2.155357
    31  H    4.625328   5.082479   5.237430   6.998065   2.161674
    32  H    5.082479   4.625328   5.626796   6.689150   2.161674
    33  H    5.326198   2.929783   5.662122   4.078292   4.444656
    34  H    5.326198   2.929783   5.665609   3.132234   5.344439
    35  H    2.929783   5.326198   3.638764   5.353556   5.344439
    36  H    2.929783   5.326198   3.633332   5.956688   4.444656
                   21         22         23         24         25
    21  O    0.000000
    22  O    2.935830   0.000000
    23  O    3.122759   3.122797   0.000000
    24  C    1.314310   3.589563   4.408043   0.000000
    25  C    4.800505   2.423021   5.466327   4.954415   0.000000
    26  C    2.422353   4.852550   5.465949   1.519262   5.936496
    27  H    2.936395   5.661889   5.831255   2.155465   6.942054
    28  H    3.288945   5.302986   6.379360   2.161535   5.965726
    29  H    2.565954   4.887802   5.292281   2.161535   5.965726
    30  H    4.773551   2.937171   5.831588   4.797952   1.106235
    31  H    5.626796   3.289611   6.379873   5.624964   1.101657
    32  H    5.237430   2.567754   5.293715   5.624964   1.101657
    33  H    3.633332   3.132234   0.981579   4.913577   5.263621
    34  H    3.638764   4.078292   0.981579   4.915885   6.442302
    35  H    5.665609   5.956688   7.582180   4.915885   6.442302
    36  H    5.662122   5.353556   7.582180   4.913577   5.263621
                   26         27         28         29         30
    26  C    0.000000
    27  H    1.106243   0.000000
    28  H    1.101665   1.789287   0.000000
    29  H    1.101665   1.789287   1.812469   0.000000
    30  H    5.526691   6.594954   5.453097   5.453097   0.000000
    31  H    6.622204   7.613293   6.523761   6.770692   1.789452
    32  H    6.622204   7.613293   6.770692   6.523761   1.789452
    33  H    5.887327   6.365461   6.756625   5.569278   5.592862
    34  H    5.877080   6.077456   6.865500   5.700875   6.795751
    35  H    5.877080   6.077456   5.700875   6.865500   6.795751
    36  H    5.887327   6.365461   5.569278   6.756625   5.592862
                   31         32         33         34         35
    31  H    0.000000
    32  H    1.811237   0.000000
    33  H    6.233277   4.922252   0.000000
    34  H    7.344734   6.270562   1.643129   0.000000
    35  H    6.270562   7.344734   8.240173   8.074687   0.000000
    36  H    4.922252   6.233277   8.074687   8.240173   1.643129
                   36
    36  H    0.000000
 Symmetry turned off by external request.
 Stoichiometry    C8H16O10Rh2
 Framework group  C1[X(C8H16O10Rh2)]
 Deg. of freedom   102
 Full point group                 C1      NOp   1
 Rotational constants (GHZ):      0.2593925      0.2590108      0.2521354
 Leave Link  202 at Sun Nov 24 22:14:12 2013, MaxMem=   33554432 cpu:       0.0
 (Enter /net/cottusp/opt/gaussian/g09revA02_amd64/g09/l301.exe)
 Standard basis: LANL2DZ (5D, 7F)
 Ernie: Thresh=  0.10000D-02 Tol=  0.10000D-05 Strict=F.
 Ernie:  2 primitive shells out of 370 were deleted.
 Integral buffers will be    131072 words long.
 Raffenetti 2 integral format.
 Two-electron integral symmetry is turned off.
   238 basis functions,   612 primitive gaussians,   242 cartesian basis functions
    89 alpha electrons       89 beta electrons
       nuclear repulsion energy      2357.7433772405 Hartrees.
 IExCor=  404 DFT=T Ex=B Corr=P86 ExCW=0 ScaHFX=  0.000000
 ScaDFX=  1.000000  1.000000  1.000000  1.000000 ScalE2=  1.000000  1.000000
 IRadAn=      5 IRanWt=     -1 IRanGd=            0 ICorTp=0
 NAtoms=   36 NActive=   36 NUniq=   36 SFac= 7.50D-01 NAtFMM=   80 NAOKFM=F Big=F
 Leave Link  301 at Sun Nov 24 22:14:12 2013, MaxMem=   33554432 cpu:       0.1
 (Enter /net/cottusp/opt/gaussian/g09revA02_amd64/g09/l302.exe)
 NPDir=0 NMtPBC=     1 NCelOv=     1 NCel=       1 NClECP=     1 NCelD=      1
         NCelK=      1 NCelE2=     1 NClLst=     1 CellRange=     0.0.
 One-electron integrals computed using PRISM.
   1 Symmetry operations used in ECPInt.
 ECPInt:  NShTT=    9591 NPrTT=   68474 LenC2=    9087 LenP2D=   38378.
 LDataN:  DoStor=T MaxTD1= 5 Len=  102
 NBasis=   238 RedAO= T  NBF=   238
 NBsUse=   238 1.00D-06 NBFU=   238
 Precomputing XC quadrature grid using
 IXCGrd= 2 IRadAn=           5 IRanWt=          -1 IRanGd=           0 AccXCQ= 1.00D-10.
 Defaulting to unpruned grid for atomic number  45.
 NRdTot=    3098 NPtTot=      879952 NUsed=      902119 NTot=      902151
 NSgBfM=   242   242   242   242   242 NAtAll=    36    36.
 Leave Link  302 at Sun Nov 24 22:14:16 2013, MaxMem=   33554432 cpu:       8.5
 (Enter /net/cottusp/opt/gaussian/g09revA02_amd64/g09/l303.exe)
 DipDrv:  MaxL=1.
 Leave Link  303 at Sun Nov 24 22:14:16 2013, MaxMem=   33554432 cpu:       0.1
 (Enter /net/cottusp/opt/gaussian/g09revA02_amd64/g09/l401.exe)
 Initial guess read from the read-write file.
 B after Tr=     0.000000    0.000000    0.000000
         Rot=    1.000000    0.000000    0.000000    0.000000 Ang=   0.00 deg.
 Guess basis will be translated and rotated to current coordinates.
 Leave Link  401 at Sun Nov 24 22:14:17 2013, MaxMem=   33554432 cpu:       0.5
 (Enter /net/cottusp/opt/gaussian/g09revA02_amd64/g09/l502.exe)
 Closed shell SCF:
 Requested convergence on RMS density matrix=1.00D-08 within 128 cycles.
 Requested convergence on MAX density matrix=1.00D-06.
 Requested convergence on             energy=1.00D-06.
 No special actions if energy rises.
 Using DIIS extrapolation, IDIIS=  1040.
 Two-electron integral symmetry not used.
       901782 words used for storage of precomputed grid.
 IEnd=     1098596 IEndB=     1098596 NGot=    33554432 MDV=    32531283
 LenX=    32531283 LenY=    32472278
 Fock matrices will be formed incrementally for  20 cycles.

 Cycle   1  Pass 1  IDiag  1:
 FoFCou: FMM=F IPFlag=           0 FMFlag=      100000 FMFlg1=           0
         NFxFlg=           0 DoJE=T BraDBF=F KetDBF=F FulRan=T
         Omega=  0.000000  0.000000  1.000000  0.000000  0.000000 ICntrl=     500 IOpCl=  0
         NMat0=    1 NMatS0=    1 NMatT0=    0 NMatD0=    1 NMtDS0=    0 NMtDT0=    0
         I1Cent=           0 NGrid=           0.
 Symmetry not used in FoFCou.
 Defaulting to unpruned grid for atomic number  45.
 Defaulting to unpruned grid for atomic number  45.
 E= -1286.10632675435    
 DIIS: error= 3.57D-07 at cycle   1 NSaved=   1.
 NSaved= 1 IEnMin= 1 EnMin= -1286.10632675435     IErMin= 1 ErrMin= 3.57D-07
 ErrMax= 3.57D-07 EMaxC= 1.00D-01 BMatC= 2.48D-11 BMatP= 2.48D-11
 IDIUse=1 WtCom= 1.00D+00 WtEn= 0.00D+00
 Coeff-Com:  0.100D+01
 Coeff:      0.100D+01
 Gap=     0.066 Goal=   None    Shift=    0.000
 RMSDP=7.24D-08 MaxDP=1.41D-06              OVMax= 2.90D-06

 Cycle   2  Pass 1  IDiag  1:
 RMSU=  5.12D-08    CP:  1.00D+00
 E= -1286.10632675442     Delta-E=       -0.000000000067 Rises=F Damp=F
 DIIS: error= 5.78D-08 at cycle   2 NSaved=   2.
 NSaved= 2 IEnMin= 2 EnMin= -1286.10632675442     IErMin= 2 ErrMin= 5.78D-08
 ErrMax= 5.78D-08 EMaxC= 1.00D-01 BMatC= 6.93D-13 BMatP= 2.48D-11
 IDIUse=1 WtCom= 1.00D+00 WtEn= 0.00D+00
 Coeff-Com:  0.429D-01 0.957D+00
 Coeff:      0.429D-01 0.957D+00
 Gap=     0.066 Goal=   None    Shift=    0.000
 RMSDP=1.68D-08 MaxDP=8.24D-07 DE=-6.73D-11 OVMax= 1.87D-06

 Cycle   3  Pass 1  IDiag  1:
 RMSU=  1.14D-08    CP:  1.00D+00  9.40D-01
 E= -1286.10632675444     Delta-E=       -0.000000000025 Rises=F Damp=F
 DIIS: error= 6.47D-08 at cycle   3 NSaved=   3.
 NSaved= 3 IEnMin= 3 EnMin= -1286.10632675444     IErMin= 2 ErrMin= 5.78D-08
 ErrMax= 6.47D-08 EMaxC= 1.00D-01 BMatC= 1.29D-12 BMatP= 6.93D-13
 IDIUse=1 WtCom= 1.00D+00 WtEn= 0.00D+00
 Coeff-Com:  0.628D-02 0.582D+00 0.412D+00
 Coeff:      0.628D-02 0.582D+00 0.412D+00
 Gap=     0.066 Goal=   None    Shift=    0.000
 RMSDP=6.45D-09 MaxDP=2.69D-07 DE=-2.46D-11 OVMax= 4.02D-07

 SCF Done:  E(RB-P86) =  -1286.10632675     A.U. after    3 cycles
             Convg  =    0.6450D-08             -V/T =  2.1306
 KE= 1.137545887529D+03 PE=-7.687369370704D+03 EE= 2.905973779181D+03
 Leave Link  502 at Sun Nov 24 22:15:33 2013, MaxMem=   33554432 cpu:     151.6
 (Enter /net/cottusp/opt/gaussian/g09revA02_amd64/g09/l701.exe)
 Compute integral first derivatives.
 ... and contract with generalized density number  0.
 DipInt: DoE/N= T T RetVal/Mat= T F Init=T NMatP=  1 IDeriv=0 Min/MaxMlt=  1  1
 Entering OneElI...
 Multipole integrals L=1 to 1 MinM= 0 MaxM= 0.
 Requested accuracy = 0.1000D-12
 PrsmSu:  NPrtUS=   1 ThrOK=F IAlg=1
 PRISM was handed    32854801 working-precision words and  8506 shell-pairs
 IPart=  0 NShTot=        8506 NBatch=          74 AvBLen=       114.9
 Entering OneElI...
 Calculate overlap and kinetic energy integrals
    NBasis = 242  MinDer = 1  MaxDer = 1
 Requested accuracy = 0.1000D-12
 PrsmSu:  NPrtUS=   2 ThrOK=T IAlg=1
 PRISM was handed    16178298 working-precision words and  9194 shell-pairs
 PRISM was handed    16178298 working-precision words and  9194 shell-pairs
 IPart=  0 NShTot=        4599 NBatch=          86 AvBLen=        53.5
 IPart=  1 NShTot=        4595 NBatch=          86 AvBLen=        53.4
 Entering OneElI...
 Calculate potential energy integrals
    NBasis = 242  MinDer = 1  MaxDer = 1
 Requested accuracy = 0.1000D-12
 PrsmSu:  NPrtUS=   2 ThrOK=T IAlg=1
 PRISM was handed    16332618 working-precision words and  7870 shell-pairs
 PRISM was handed    16332618 working-precision words and  7870 shell-pairs
 IPart=  0 NShTot=      141732 NBatch=        3937 AvBLen=        36.0
 IPart=  1 NShTot=      141588 NBatch=        3933 AvBLen=        36.0
   1 Symmetry operations used in ECPInt.
 ECPInt:  NShTT=    9591 NPrTT=   68474 LenC2=    9087 LenP2D=   38378.
 LDataN:  DoStor=F MaxTD1= 6 Len=  172
 LDataN:  DoStor=T MaxTD1= 6 Len=  172
 ECPSu:  NPrtUS=   2 ThrOK=T
 FXYZ after ECPSu
 I=    0 X=   0.000000000000D+00 Y=   0.000000000000D+00 Z=   0.000000000000D+00
 I=    1 X=  -1.698925638614D-04 Y=  -1.160102569703D-02 Z=   0.000000000000D+00
 I=    2 X=   4.714499411607D-06 Y=   1.716122827756D-04 Z=   0.000000000000D+00
 I=    3 X=  -1.167843799303D-02 Y=   1.706531339142D-04 Z=   0.000000000000D+00
 I=    4 X=   1.671336947059D-04 Y=  -4.910052123561D-06 Z=   0.000000000000D+00
 I=    5 X=   1.684041905191D-08 Y=  -9.110638592145D-08 Z=   0.000000000000D+00
 I=    6 X=  -1.082584752060D-08 Y=  -1.234833912002D-07 Z=   0.000000000000D+00
 I=    7 X=  -1.082585340614D-08 Y=  -1.234834231043D-07 Z=   0.000000000000D+00
 I=    8 X=  -8.987111676484D-08 Y=  -1.649723534340D-08 Z=   0.000000000000D+00
 I=    9 X=  -1.223643757707D-07 Y=   1.062099051389D-08 Z=   0.000000000000D+00
 I=   10 X=  -1.223643756913D-07 Y=   1.062098964710D-08 Z=   0.000000000000D+00
 I=   11 X=   7.829413817420D-05 Y=   3.829205082401D-02 Z=   1.315298762684D-03
 I=   12 X=   7.829459870522D-05 Y=   3.829205630045D-02 Z=  -1.315298900182D-03
 I=   13 X=   3.791613573159D-02 Y=  -7.551079811681D-05 Z=   1.255013667086D-03
 I=   14 X=  -3.791613582119D-02 Y=   7.551109709980D-05 Z=   1.255013668404D-03
 I=   15 X=   0.000000000000D+00 Y=   0.000000000000D+00 Z=  -1.773401020504D-02
 I=   16 X=   0.000000000000D+00 Y=   0.000000000000D+00 Z=  -7.445930188768D-02
 I=   17 X=   0.000000000000D+00 Y=   0.000000000000D+00 Z=   7.445930191074D-02
 I=   18 X=  -7.829416919354D-05 Y=  -3.829205670604D-02 Z=   1.315298970099D-03
 I=   19 X=   3.791613514304D-02 Y=  -7.551164929678D-05 Z=  -1.255013601734D-03
 I=   20 X=   1.167843798941D-02 Y=  -1.706531345679D-04 Z=   0.000000000000D+00
 I=   21 X=  -7.829456785364D-05 Y=  -3.829205042093D-02 Z=  -1.315298692777D-03
 I=   22 X=  -3.791613506218D-02 Y=   7.551135347179D-05 Z=  -1.255013600388D-03
 I=   23 X=   0.000000000000D+00 Y=   0.000000000000D+00 Z=   1.773401042036D-02
 I=   24 X=   1.698925636690D-04 Y=   1.160102569609D-02 Z=   0.000000000000D+00
 I=   25 X=  -1.671336947366D-04 Y=   4.910052138520D-06 Z=   0.000000000000D+00
 I=   26 X=  -4.714499411765D-06 Y=  -1.716122827713D-04 Z=   0.000000000000D+00
 I=   27 X=  -1.684041905270D-08 Y=   9.110638592245D-08 Z=   0.000000000000D+00
 I=   28 X=   1.082584722116D-08 Y=   1.234833895896D-07 Z=   0.000000000000D+00
 I=   29 X=   1.082585370319D-08 Y=   1.234834247088D-07 Z=   0.000000000000D+00
 I=   30 X=   8.987111668315D-08 Y=   1.649723531532D-08 Z=   0.000000000000D+00
 I=   31 X=   1.223643744376D-07 Y=  -1.062098977946D-08 Z=   0.000000000000D+00
 I=   32 X=   1.223643770409D-07 Y=  -1.062099041219D-08 Z=   0.000000000000D+00
 I=   33 X=   9.436177225185D-05 Y=   4.811375898369D-07 Z=  -2.179105786058D-04
 I=   34 X=  -9.436177230316D-05 Y=  -4.811402171572D-07 Z=  -2.179105789429D-04
 I=   35 X=  -9.436177273428D-05 Y=  -4.811376251607D-07 Z=   2.179105786432D-04
 I=   36 X=   9.436177277821D-05 Y=   4.811402542362D-07 Z=   2.179105790063D-04
 l701 out
 I=    0 X=   0.000000000000D+00 Y=   0.000000000000D+00 Z=   2.676192458750D-07
 I=    1 X=  -4.658171018507D-01 Y=   2.013191567397D+01 Z=  -5.550141800764D-06
 I=    2 X=   5.193277368059D-02 Y=   1.275256057827D+01 Z=   4.456405612039D-07
 I=    3 X=   2.018613318764D+01 Y=   4.618133677789D-01 Z=   9.974448205385D-08
 I=    4 X=   1.276509530116D+01 Y=  -4.033928998591D-02 Z=   0.000000000000D+00
 I=    5 X=  -6.037695374113D+00 Y=   3.243328697034D+00 Z=   1.479891026279D-07
 I=    6 X=   2.763115833138D+00 Y=   3.494639727667D+00 Z=   5.125494968185D+00
 I=    7 X=   2.763115468216D+00 Y=   3.494639644559D+00 Z=  -5.125494753655D+00
 I=    8 X=   3.239384874504D+00 Y=   6.039786748021D+00 Z=   7.734298647796D-08
 I=    9 X=   3.506944763263D+00 Y=  -2.766629291803D+00 Z=   5.118223440975D+00
 I=   10 X=   3.506944750219D+00 Y=  -2.766629155493D+00 Z=  -5.118223515308D+00
 I=   11 X=   2.692054326686D-01 Y=   1.167326971875D+01 Z=  -2.273658476863D+01
 I=   12 X=   2.692060806766D-01 Y=   1.167326784845D+01 Z=   2.273658918550D+01
 I=   13 X=   1.160976262221D+01 Y=  -2.696525654453D-01 Z=  -2.309792640576D+01
 I=   14 X=  -1.160976261556D+01 Y=   2.696527807976D-01 Z=  -2.309792645057D+01
 I=   15 X=   0.000000000000D+00 Y=   8.762077889890D-08 Z=  -1.333377261025D+01
 I=   16 X=  -1.768472253317D-08 Y=   1.308769669185D-06 Z=  -1.494065939542D+01
 I=   17 X=   1.824537307002D-08 Y=  -1.310964576832D-06 Z=   1.494065926250D+01
 I=   18 X=  -2.692055228827D-01 Y=  -1.167326804668D+01 Z=  -2.273658897094D+01
 I=   19 X=   1.160976266409D+01 Y=  -2.696535395455D-01 Z=   2.309792633461D+01
 I=   20 X=  -2.018613319021D+01 Y=  -4.618133680567D-01 Z=   2.178474105077D-07
 I=   21 X=  -2.692059897216D-01 Y=  -1.167326952071D+01 Z=   2.273658498259D+01
 I=   22 X=  -1.160976267031D+01 Y=   2.696533240271D-01 Z=   2.309792628651D+01
 I=   23 X=   0.000000000000D+00 Y=  -8.802551882394D-08 Z=   1.333377271258D+01
 I=   24 X=   4.658171015155D-01 Y=  -2.013191567408D+01 Z=   4.973154977650D-06
 I=   25 X=  -1.276509530048D+01 Y=   4.033929132062D-02 Z=  -1.524054887344D-08
 I=   26 X=  -5.193277369905D-02 Y=  -1.275256057828D+01 Z=  -3.698565911449D-07
 I=   27 X=   6.037695374055D+00 Y=  -3.243328696889D+00 Z=  -1.075264112275D-08
 I=   28 X=  -2.763115714020D+00 Y=  -3.494639718458D+00 Z=  -5.125495006355D+00
 I=   29 X=  -2.763115587408D+00 Y=  -3.494639653620D+00 Z=   5.125494715467D+00
 I=   30 X=  -3.239384875422D+00 Y=  -6.039786747366D+00 Z=   8.374074832329D-08
 I=   31 X=  -3.506944755694D+00 Y=   2.766629154130D+00 Z=  -5.118223526733D+00
 I=   32 X=  -3.506944756703D+00 Y=   2.766629294354D+00 Z=   5.118223429522D+00
 I=   33 X=  -6.499376845873D+00 Y=  -3.787976752374D-02 Z=   5.070966113651D+00
 I=   34 X=   6.499376845302D+00 Y=   3.787990643489D-02 Z=   5.070966117059D+00
 I=   35 X=   6.499376859469D+00 Y=   3.787976823792D-02 Z=  -5.070966115989D+00
 I=   36 X=  -6.499376858717D+00 Y=  -3.787990725945D-02 Z=  -5.070966119948D+00
 Leave Link  701 at Sun Nov 24 22:15:36 2013, MaxMem=   33554432 cpu:       6.6
 (Enter /net/cottusp/opt/gaussian/g09revA02_amd64/g09/l702.exe)
 L702 exits ... SP integral derivatives will be done elsewhere.
 Leave Link  702 at Sun Nov 24 22:15:36 2013, MaxMem=   33554432 cpu:       0.0
 (Enter /net/cottusp/opt/gaussian/g09revA02_amd64/g09/l703.exe)
 Compute integral first derivatives, UseDBF=F ICtDFT=           0.
 Integral derivatives from FoFDir, PRISM(SPDF).
 ICntrl=      2127.
 Calling FoFJK, ICntrl=      2527 FMM=F ISym2X=0 I1Cent= 0 IOpClX= 0 NMat=1 NMatS=1 NMatT=0.
 FoFJK:  IHMeth= 1 ICntrl=  2527 DoSepK=F KAlg= 1 I1Cent= 0 FoldK=F
 FoFCou: FMM=F IPFlag=           0 FMFlag=      100000 FMFlg1=         800
         NFxFlg=           0 DoJE=F BraDBF=F KetDBF=F FulRan=T
         Omega=  0.000000  0.000000  1.000000  0.000000  0.000000 ICntrl=    2527 IOpCl=  0
         NMat0=    1 NMatS0=    1 NMatT0=    0 NMatD0=    1 NMtDS0=    0 NMtDT0=    0
         I1Cent=           0 NGrid=           0.
 Symmetry not used in FoFCou.
 FoFCou:  KetSym=F NOpSet=  1 NOpAb=1 NOp=  1.
 FoFCou:  CnvScl= 1.00D+00 Thresh= 1.00D-10
 PrismS was handed    32847419 working-precision words and  8370 shell-pairs
 LenC2 before Schwartz=        8371 after=        7913.
 FoFCou: LinMIO=F DoNuc=F BraDBF=F KetDBF=F HaveP=T PDBF=F HaveZ=T HaveW=F
         NIJTC =       6 NIJTAt=       0 NIJTCD=       0 NIJTT =       6
         IJTBeg=       1 IJTEnd=       6 KLTBeg=       1 KLTEnd=       6
         IPTBeg=       1 IPTEnd=       6 IPTBCv=       1 IPTECv=       6
         IZTBeg=       1 IZTEnd=       6 IZTBCv=       1 IZTECv=       6
         IWTBeg=       7 IWTEnd=       6 IWTBCv=       7 IWTECv=       6
         INTBeg=       1 INTEnd=       0 IFTBCv=       1 IFTECv=       6
 NCel replicated for PrismC:     1
 CoulSu:  NPrtUS=   2 ThrOK=T IAlg=1
 Enter PrismC: JobTyp=21 DoJE=F Cont=F.
 PrismC was handed    16300670 working-precision words and  7912 shell-pairs
 Enter PrismC: JobTyp=21 DoJE=F Cont=F.
 PrismC was handed    16300670 working-precision words and  7912 shell-pairs
 IPart=  0 NShTot=     9193953 NShNF=     9193953 NShFF=           0 NBatch=       60825 AvBLen=       151.2
 IPart=  1 NShTot=     9175984 NShNF=     9175984 NShFF=           0 NBatch=       60753 AvBLen=       151.0
 ReadGW:  IGet=0 IStart=           1 Next=       21831 LGW=       21830.
 Remaining memory in FofDFT       31.92 Mw
 Pruned (  99, 590) grid will be used in CalDFT.
 CkSvGd:  ISavGI=        -1 IRadAn=       5 IRASav=       5 ISavGd=        -1.
 CalDSu:  NPrtUS=   2 ThrOK=T IAlg=1
 IPart= 0 IRanGd=          0 ScrnBf=T ScrnGd=T RCrit=4.00D+00 DoMicB=T.
 CutRad = 1000.00    CtRdIn =    0.00    XCrit =  15.00   ICut = 0
 IPart= 1 IRanGd=          0 ScrnBf=T ScrnGd=T RCrit=4.00D+00 DoMicB=T.
 CutRad = 1000.00    CtRdIn =    0.00    XCrit =  15.00   ICut = 0
 Pruned (  99, 590) grid will be used in CalDFT.
 Pruned (  99, 590) grid will be used in CalDFT.
 Pruned (  99, 590) grid will be used in CalDFT.
 Pruned (  99, 590) grid will be used in CalDFT.
 Pruned (  99, 590) grid will be used in CalDFT.
 Pruned (  99, 590) grid will be used in CalDFT.
 Pruned (  99, 590) grid will be used in CalDFT.
 Pruned (  99, 590) grid will be used in CalDFT.
 Pruned (  99, 590) grid will be used in CalDFT.
 Pruned (  99, 590) grid will be used in CalDFT.
 Pruned (  99, 590) grid will be used in CalDFT.
 Pruned (  99, 590) grid will be used in CalDFT.
 Pruned (  99, 590) grid will be used in CalDFT.
 Pruned (  99, 590) grid will be used in CalDFT.
 Pruned (  99, 590) grid will be used in CalDFT.
 Pruned (  99, 590) grid will be used in CalDFT.
 Pruned (  99, 590) grid will be used in CalDFT.
 Pruned (  99, 590) grid will be used in CalDFT.
 Pruned (  99, 590) grid will be used in CalDFT.
 Pruned (  99, 590) grid will be used in CalDFT.
 Pruned (  99, 590) grid will be used in CalDFT.
 Pruned (  99, 590) grid will be used in CalDFT.
 Pruned (  99, 590) grid will be used in CalDFT.
 Pruned (  99, 590) grid will be used in CalDFT.
 Pruned (  99, 590) grid will be used in CalDFT.
 Pruned (  99, 590) grid will be used in CalDFT.
 Pruned (  99, 590) grid will be used in CalDFT.
 Pruned (  99, 590) grid will be used in CalDFT.
 Pruned (  99, 590) grid will be used in CalDFT.
 Pruned (  99, 590) grid will be used in CalDFT.
 Pruned (  99, 590) grid will be used in CalDFT.
 Defaulting to unpruned grid for atomic number  45.
 Pruned (  99, 590) grid will be used in CalDFT.
 Defaulting to unpruned grid for atomic number  45.
 Pruned (  99, 590) grid will be used in CalDFT.
 Pruned (  99, 590) grid will be used in CalDFT.
 Pruned (  99, 590) grid will be used in CalDFT.
 Pruned (  99, 590) grid will be used in CalDFT.
 Pruned (  99, 590) grid will be used in CalDFT.
 Pruned (  99, 590) grid will be used in CalDFT.
 Pruned (  99, 590) grid will be used in CalDFT.
 Pruned (  99, 590) grid will be used in CalDFT.
 Pruned (  99, 590) grid will be used in CalDFT.
 Pruned (  99, 590) grid will be used in CalDFT.
 Pruned (  99, 590) grid will be used in CalDFT.
 Pruned (  99, 590) grid will be used in CalDFT.
 Pruned (  99, 590) grid will be used in CalDFT.
 Pruned (  99, 590) grid will be used in CalDFT.
 Pruned (  99, 590) grid will be used in CalDFT.
 Pruned (  99, 590) grid will be used in CalDFT.
 Pruned (  99, 590) grid will be used in CalDFT.
 Pruned (  99, 590) grid will be used in CalDFT.
 Pruned (  99, 590) grid will be used in CalDFT.
 Pruned (  99, 590) grid will be used in CalDFT.
 Pruned (  99, 590) grid will be used in CalDFT.
 Pruned (  99, 590) grid will be used in CalDFT.
 Pruned (  99, 590) grid will be used in CalDFT.
 Pruned (  99, 590) grid will be used in CalDFT.
 Pruned (  99, 590) grid will be used in CalDFT.
 Pruned (  99, 590) grid will be used in CalDFT.
 Pruned (  99, 590) grid will be used in CalDFT.
 Pruned (  99, 590) grid will be used in CalDFT.
 Pruned (  99, 590) grid will be used in CalDFT.
 Pruned (  99, 590) grid will be used in CalDFT.
 Pruned (  99, 590) grid will be used in CalDFT.
 Pruned (  99, 590) grid will be used in CalDFT.
 Pruned (  99, 590) grid will be used in CalDFT.
 Pruned (  99, 590) grid will be used in CalDFT.
 Pruned (  99, 590) grid will be used in CalDFT.
 Pruned (  99, 590) grid will be used in CalDFT.
 Pruned (  99, 590) grid will be used in CalDFT.
 Pruned (  99, 590) grid will be used in CalDFT.
 Pruned (  99, 590) grid will be used in CalDFT.
 Pruned (  99, 590) grid will be used in CalDFT.
 IPart= 0       373258 of       453566 points in     473 batches and     1975 microbatches, Max-NSigAt=      36 Max-NSgAt2=      36
 IPart= 1       357761 of       434842 points in     449 batches and     1951 microbatches, Max-NSigAt=      36 Max-NSgAt2=      36
 Forces at end of L703
 I=    0 X=   0.000000000000D+00 Y=   0.000000000000D+00 Z=   2.676192458750D-07
 I=    1 X=  -2.035288529378D-07 Y=   2.294681777926D-08 Z=  -1.087257866657D-07
 I=    2 X=   4.004302977395D-08 Y=  -1.770751723029D-08 Z=   0.000000000000D+00
 I=    3 X=  -8.020380448670D-08 Y=   2.075743357755D-07 Z=   0.000000000000D+00
 I=    4 X=  -3.574836959785D-08 Y=   5.285330468424D-08 Z=   0.000000000000D+00
 I=    5 X=  -5.634849564728D-08 Y=  -3.504030621215D-08 Z=   0.000000000000D+00
 I=    6 X=  -4.949452403480D-08 Y=   1.657397508126D-08 Z=   0.000000000000D+00
 I=    7 X=  -5.510991218927D-08 Y=   1.351132050686D-08 Z=   0.000000000000D+00
 I=    8 X=  -1.196476295817D-08 Y=   4.027490696501D-08 Z=   0.000000000000D+00
 I=    9 X=   3.081399890803D-08 Y=   6.493484638881D-08 Z=   0.000000000000D+00
 I=   10 X=   3.081132149418D-08 Y=   6.459645129908D-08 Z=   0.000000000000D+00
 I=   11 X=   4.494827846591D-07 Y=   2.626855533094D-08 Z=   0.000000000000D+00
 I=   12 X=   4.510496220411D-07 Y=  -1.276216465840D-08 Z=   8.823862174268D-08
 I=   13 X=   4.074529513787D-08 Y=   4.141934828450D-07 Z=   7.590780271016D-08
 I=   14 X=  -4.038622591906D-08 Y=  -4.046951690984D-07 Z=   7.489692066542D-08
 I=   15 X=   0.000000000000D+00 Y=   0.000000000000D+00 Z=  -5.851729412143D-08
 I=   16 X=   0.000000000000D+00 Y=   1.822930785933D-08 Z=  -2.253567821242D-08
 I=   17 X=   0.000000000000D+00 Y=  -1.823314097361D-08 Z=   2.264679821451D-08
 I=   18 X=  -4.510104409938D-07 Y=   1.167816954251D-08 Z=  -8.423750941233D-08
 I=   19 X=   4.469704428800D-08 Y=   4.043131486275D-07 Z=  -7.894828968347D-08
 I=   20 X=   8.012426633286D-08 Y=  -2.075868379414D-07 Z=   0.000000000000D+00
 I=   21 X=  -4.495108719693D-07 Y=  -2.518345354474D-08 Z=   0.000000000000D+00
 I=   22 X=  -4.502576089749D-08 Y=  -4.137956222117D-07 Z=  -7.994317741122D-08
 I=   23 X=   0.000000000000D+00 Y=   0.000000000000D+00 Z=   5.948224313101D-08
 I=   24 X=   2.035245010856D-07 Y=  -2.295006140685D-08 Z=   9.788298942750D-08
 I=   25 X=   3.576467833000D-08 Y=  -5.285580196440D-08 Z=   0.000000000000D+00
 I=   26 X=  -4.003822638710D-08 Y=   1.770618673902D-08 Z=   0.000000000000D+00
 I=   27 X=   5.634602384674D-08 Y=   3.504090706485D-08 Z=   0.000000000000D+00
 I=   28 X=   4.980832590817D-08 Y=  -1.630924106877D-08 Z=   0.000000000000D+00
 I=   29 X=   5.479386544494D-08 Y=  -1.377687564030D-08 Z=   0.000000000000D+00
 I=   30 X=   1.196780141655D-08 Y=  -4.027421240949D-08 Z=   0.000000000000D+00
 I=   31 X=  -3.082220390027D-08 Y=  -6.490483750454D-08 Z=   0.000000000000D+00
 I=   32 X=  -3.080512556153D-08 Y=  -6.462084334302D-08 Z=   0.000000000000D+00
 I=   33 X=   0.000000000000D+00 Y=   1.214245407694D-08 Z=  -3.847439966620D-08
 I=   34 X=   0.000000000000D+00 Y=   0.000000000000D+00 Z=  -3.844933882391D-08
 I=   35 X=   0.000000000000D+00 Y=  -1.216795793985D-08 Z=   3.900639988785D-08
 I=   36 X=   0.000000000000D+00 Y=   0.000000000000D+00 Z=   3.898294842486D-08
 Leave Link  703 at Sun Nov 24 22:16:46 2013, MaxMem=   33554432 cpu:     140.9
 (Enter /net/cottusp/opt/gaussian/g09revA02_amd64/g09/l716.exe)
 FrcOut:
 IF    =  2543 IFX   =  2783 IFXYZ =  2891
 IFFX  =  2999 IFFFX =  2999 IFLen =   240
 IFFLen=     0 IFFFLn=     0 IEDerv=  2999
 LEDerv=  5237 IFroze=  8240 ICStrt=122409
 Dipole        =-7.23651139D-10 8.93154214D-11 2.67619246D-07
 -------------------------------------------------------------------
 Center     Atomic                   Forces (Hartrees/Bohr)
 Number     Number              X              Y              Z
 -------------------------------------------------------------------
      1        6           0.000000204   -0.000000023    0.000000109
      2        6          -0.000000040    0.000000018   -0.000000001
      3        6           0.000000080   -0.000000208   -0.000000003
      4        6           0.000000036   -0.000000053    0.000000000
      5        1           0.000000056    0.000000035   -0.000000003
      6        1           0.000000049   -0.000000017   -0.000000007
      7        1           0.000000055   -0.000000014   -0.000000007
      8        1           0.000000012   -0.000000040    0.000000000
      9        1          -0.000000031   -0.000000065   -0.000000002
     10        1          -0.000000031   -0.000000065    0.000000003
     11        8          -0.000000449   -0.000000026   -0.000000009
     12        8          -0.000000451    0.000000013   -0.000000088
     13        8          -0.000000041   -0.000000414   -0.000000076
     14        8           0.000000040    0.000000405   -0.000000075
     15        8           0.000000000   -0.000000007    0.000000059
     16       45           0.000000000   -0.000000018    0.000000023
     17       45           0.000000000    0.000000018   -0.000000023
     18        8           0.000000451   -0.000000012    0.000000084
     19        8          -0.000000045   -0.000000404    0.000000079
     20        6          -0.000000080    0.000000208   -0.000000005
     21        8           0.000000450    0.000000025    0.000000005
     22        8           0.000000045    0.000000414    0.000000080
     23        8           0.000000000    0.000000007   -0.000000059
     24        6          -0.000000204    0.000000023   -0.000000098
     25        6          -0.000000036    0.000000053    0.000000001
     26        6           0.000000040   -0.000000018    0.000000001
     27        1          -0.000000056   -0.000000035    0.000000002
     28        1          -0.000000050    0.000000016    0.000000006
     29        1          -0.000000055    0.000000014    0.000000006
     30        1          -0.000000012    0.000000040    0.000000000
     31        1           0.000000031    0.000000065    0.000000003
     32        1           0.000000031    0.000000065   -0.000000003
     33        1           0.000000003   -0.000000012    0.000000038
     34        1          -0.000000003    0.000000008    0.000000038
     35        1          -0.000000001    0.000000012   -0.000000039
     36        1           0.000000001   -0.000000008   -0.000000039
 -------------------------------------------------------------------
 Cartesian Forces:  Max     0.000000451 RMS     0.000000129
 Final forces over variables, Energy=-1.28610633D+03:
 -1.50111843D-07-2.25363932D-07-2.19986260D-07 9.62657902D-08
 -2.12412808D-07-2.12975894D-07 8.68162291D-08 4.22741953D-07
  4.22306671D-07-4.93162441D-07-3.38871369D-07-3.38803000D-07
 -3.40426137D-09-3.54577355D-09-2.50478332D-08-2.50821789D-08
  4.22756921D-07 3.75968756D-08 4.61537410D-09 4.61891463D-09
  7.51173246D-08-3.44646887D-09-2.48718728D-08-3.50434668D-09
 -2.48292644D-08 3.76438590D-08-2.20225971D-07 4.22301097D-07
  8.68125461D-08-2.25125728D-07 4.60437746D-09 4.60636010D-09
 -1.50113271D-07-4.93164556D-07-3.38815907D-07-3.38856823D-07
  9.62640022D-08-2.12441483D-07-2.12947189D-07 3.87218352D-08
  3.73425391D-08-7.53999407D-08-1.01019816D-07 1.85181392D-08
  1.85471394D-08 3.63426616D-08 3.63443833D-08-9.88358576D-09
  4.23968730D-08 4.25875953D-08-8.43266170D-08-8.98651197D-08
  3.34103346D-08 3.33909170D-08 1.98192941D-08 1.98246093D-08
 -1.84296830D-08 1.08523966D-07 1.08183820D-07-3.12565690D-08
 -3.12677266D-08 5.27409469D-08 5.27427354D-08-1.05483682D-07
  4.51187094D-07-4.50951406D-07 7.10690548D-08-7.06288822D-08
 -7.36306664D-08 7.36093450D-08-4.51071071D-07-7.36166160D-08
  7.36379374D-08 4.51051401D-07 7.08715828D-08-7.13117554D-08
 -7.13094970D-08 4.52392792D-07-4.52413801D-07 7.08698847D-08
  7.36205282D-08-7.06268636D-08 7.35925673D-08-4.52294435D-07
 -7.36013578D-08 4.52529813D-07 7.10664760D-08-7.36117376D-08
  1.08190595D-07-3.12672077D-08-8.43319519D-08 4.23491606D-08
  4.26406660D-08 1.08517074D-07-3.12513370D-08 5.27435016D-08
  5.27449789D-08-1.05488480D-07-7.53995726D-08 3.74982955D-08
  3.85657087D-08-8.98659603D-08 3.33951108D-08 3.34058913D-08
  1.98122071D-08 1.98327466D-08-1.84296347D-08-1.01020499D-07
  1.85238953D-08 1.85408046D-08 3.63479313D-08 3.63402941D-08
 -9.88348707D-09 1.59723844D-08 9.84983663D-09 2.20753506D-08
 -1.59322978D-08-2.20548455D-08-9.82933154D-09 1.15874122D-08
  4.80099691D-08-1.15886529D-08-4.80274120D-08 1.54291017D-08
  4.80710544D-09 2.60563153D-08-1.54873202D-08-2.61093164D-08
 -4.86010658D-09-6.56034153D-08-3.00985193D-08 6.41107412D-08
  2.86081302D-08-8.37828470D-08 6.35179548D-08-2.25691428D-08
 -2.25905400D-08-4.39268029D-08 2.26134762D-08 8.37837894D-08
 -6.34899116D-08 2.26327214D-08 4.39629652D-08-6.88971298D-08
  1.47896105D-08 1.43492634D-08 7.30981287D-08 7.26727601D-08
  1.41633538D-08 1.46037008D-08-6.93220526D-08-3.02301105D-08
 -6.57368961D-08 2.20154779D-07-2.31328362D-07-2.31195076D-07
  2.20147148D-07 2.20246105D-07-2.31237036D-07-2.31103750D-07
  2.20238474D-07 2.20287514D-07-2.32403613D-07 2.20296554D-07
 -2.32524686D-07 2.20080305D-07-2.32610822D-07 2.20089345D-07
 -2.32731895D-07 1.96752796D-13 1.10184687D-10-1.10233410D-10
 -2.45476530D-13-1.74078596D-11-4.52714162D-07-7.79871838D-12
 -4.52823412D-07 4.51454045D-07-1.24270864D-09 4.51463654D-07
 -1.35195887D-09 4.51345316D-07-1.35143750D-09 4.51354926D-07
 -1.46068773D-09-8.59525041D-12-4.52705349D-07 1.01389083D-12
 -4.52814599D-07 6.34883808D-08-8.38194717D-08-2.26161075D-08
 -2.25947103D-08-2.20304365D-07-2.20097238D-07 2.31172737D-07
  2.31379864D-07 2.31052200D-07 2.31259327D-07-2.20296064D-07
 -2.20088937D-07 7.25094996D-08-1.14513888D-08-6.94809775D-08
 -1.10116025D-08-2.17259150D-08 2.26084537D-08-6.35197143D-08
  8.37469077D-08 2.25892085D-08-6.99067325D-08-1.11975694D-08
  7.20842358D-08-1.16373557D-08-2.20138671D-07-2.20229690D-07
  2.32546352D-07 2.32455332D-07-2.20147217D-07-2.20238237D-07
  2.32680127D-07 2.32589108D-07 4.80167513D-08 1.15799246D-08
  2.84780521D-08 6.39813452D-08 1.54733100D-08 2.61136908D-08
  4.86458616D-09-1.54441847D-08-4.80380392D-09-2.60529085D-08
 -4.80187848D-08-1.15944966D-08 1.59401559D-08 2.20532049D-08
  9.82795171D-09-1.59644414D-08-9.85139240D-09-2.20766456D-08
 Leave Link  716 at Sun Nov 24 22:16:47 2013, MaxMem=   33554432 cpu:       0.1
 (Enter /net/cottusp/opt/gaussian/g09revA02_amd64/g09/l103.exe)

 GradGradGradGradGradGradGradGradGradGradGradGradGradGradGradGradGradGrad
 Berny optimization.
 Using GEDIIS/GDIIS optimizer.
 Internal  Forces:  Max     0.000000317 RMS     0.000000102
 Search for a local minimum.
 Step number   2 out of a maximum of  216
 All quantities printed in internal units (Hartrees-Bohrs-Radians)
 RMS Force = .10191D-06 SwitMx=.10000D-02 MixMth= 2
 Mixed Optimization -- En-DIIS/RFO-DIIS
 Swaping is turned off.
 Update second derivatives using D2CorX and points    1    2
 DE= -8.14D-11 DEPred=-3.38D-11 R= 2.41D+00
 Trust test= 2.41D+00 RLast= 3.31D-05 DXMaxT set to 3.00D-01
     Eigenvalues ---    0.00225   0.00230   0.00230   0.00230   0.00397
     Eigenvalues ---    0.00511   0.00511   0.00515   0.00515   0.01172
     Eigenvalues ---    0.01262   0.01264   0.01273   0.01733   0.01738
     Eigenvalues ---    0.01851   0.02247   0.02251   0.02254   0.02635
     Eigenvalues ---    0.03204   0.05176   0.05176   0.07206   0.07207
     Eigenvalues ---    0.07207   0.07218   0.07421   0.07421   0.07426
     Eigenvalues ---    0.07426   0.09377   0.09377   0.10019   0.10020
     Eigenvalues ---    0.11449   0.13186   0.13652   0.13672   0.14817
     Eigenvalues ---    0.14817   0.14836   0.14838   0.14898   0.15297
     Eigenvalues ---    0.15482   0.15986   0.16000   0.16000   0.16000
     Eigenvalues ---    0.16000   0.16000   0.16000   0.16000   0.16000
     Eigenvalues ---    0.16000   0.16000   0.16000   0.16000   0.16000
     Eigenvalues ---    0.16000   0.16209   0.17475   0.17489   0.18567
     Eigenvalues ---    0.18572   0.24157   0.24303   0.24307   0.24493
     Eigenvalues ---    0.24997   0.24997   0.24997   0.24999   0.30438
     Eigenvalues ---    0.30458   0.30468   0.30556   0.33001   0.33001
     Eigenvalues ---    0.33002   0.33220   0.33498   0.33499   0.33499
     Eigenvalues ---    0.33499   0.33500   0.33500   0.33500   0.35889
     Eigenvalues ---    0.51079   0.51079   0.51079   0.51082   0.56741
     Eigenvalues ---    0.56883   0.56921   0.58056   0.62151   0.62194
     Eigenvalues ---    0.62249   0.623641000.000001000.000001000.00000
     Eigenvalues --- 1000.000001000.000001000.000001000.000001000.00000
     Eigenvalues --- 1000.000001000.000001000.000001000.000001000.00000
     Eigenvalues --- 1000.000001000.000001000.000001000.000001000.00000
     Eigenvalues --- 1000.000001000.000001000.000001000.000001000.00000
     Eigenvalues --- 1000.000001000.000001000.000001000.000001000.00000
     Eigenvalues --- 1000.000001000.000001000.000001000.000001000.00000
     Eigenvalues --- 1000.000001000.000001000.000001000.000001000.00000
     Eigenvalues --- 1000.000001000.000001000.000001000.000001000.00000
     Eigenvalues --- 1000.000001000.000001000.000001000.000001000.00000
     Eigenvalues --- 1000.000001000.000001000.000001000.000001000.00000
     Eigenvalues --- 1000.000001000.000001000.000001000.000001000.00000
     Eigenvalues --- 1000.000001000.000001000.000001000.000001000.00000
     Eigenvalues --- 1000.000001000.000001000.000001000.000001000.00000
     Eigenvalues --- 1000.000001000.000001000.000001000.000001000.00000
     Eigenvalues --- 1000.000001000.000001000.000001000.000001000.00000
     Eigenvalues --- 1000.000001000.000001000.000001000.000001000.00000
     Eigenvalues --- 1000.000001000.000001000.000001000.000001000.00000
     Eigenvalues --- 1000.000001000.000001000.000001000.000001000.00000
     Eigenvalues --- 1000.000001000.000001000.000001000.000001000.00000
     Eigenvalues --- 1000.000001000.000001000.000001000.000001000.00000
     Eigenvalues --- 1000.000001000.000001000.000001000.000001000.00000
     Eigenvalues --- 1000.000001000.000001000.000001000.000001000.00000
     Eigenvalues --- 1000.000001000.000001000.000001000.000001000.00000
     Eigenvalues --- 1000.000001000.000001000.000001000.000001000.00000
     Eigenvalues --- 1000.000001000.000001000.000001000.000001000.00000
     Eigenvalues --- 1000.000001000.000001000.000001000.000001000.00000
     Eigenvalues --- 1000.000001000.000001000.000001000.000001000.00000
 En-DIIS/RFO-DIIS IScMMF=        0 using points:     2    1
 RFO step:  Lambda= 0.00000000D+00.
 DIIS coeffs:      2.53132     -1.53132
 Iteration  1 RMS(Cart)=  0.00002114 RMS(Int)=  0.00000000
 Iteration  2 RMS(Cart)=  0.00000000 RMS(Int)=  0.00000000
 Variable       Old X    -DE/DX   Delta X   Delta X   Delta X     New X
                                  (DIIS)     (GDIIS)  (Total)
    R1        2.87099   0.00000   0.00000   0.00000   0.00000   2.87099
    R2        2.48369   0.00000   0.00000   0.00000   0.00000   2.48369
    R3        2.48369   0.00000   0.00000   0.00000   0.00000   2.48368
    R4        2.09050   0.00000   0.00000   0.00000   0.00000   2.09050
    R5        2.08185   0.00000   0.00000   0.00000   0.00000   2.08184
    R6        2.08185   0.00000   0.00000   0.00000   0.00000   2.08184
    R7        2.87039   0.00000   0.00000   0.00000   0.00000   2.87039
    R8        2.48397   0.00000   0.00000   0.00000   0.00000   2.48397
    R9        2.48397   0.00000   0.00000   0.00000   0.00000   2.48397
   R10        2.09048   0.00000   0.00000   0.00000   0.00000   2.09048
   R11        2.08183   0.00000   0.00000   0.00000   0.00000   2.08183
   R12        2.08183   0.00000   0.00000   0.00000   0.00000   2.08183
   R13        3.92528   0.00000   0.00000   0.00000   0.00000   3.92528
   R14        3.92528   0.00000   0.00000   0.00000   0.00000   3.92528
   R15        3.92426   0.00000   0.00000   0.00000   0.00000   3.92426
   R16        3.92426   0.00000   0.00000   0.00000   0.00000   3.92426
   R17        2.48397   0.00000   0.00000   0.00000   0.00000   2.48397
   R18        4.29929   0.00000   0.00000   0.00000   0.00000   4.29929
   R19        1.85491   0.00000   0.00000   0.00000   0.00000   1.85491
   R20        1.85491   0.00000   0.00000   0.00000   0.00000   1.85491
   R21        4.63025   0.00000   0.00000   0.00000   0.00000   4.63025
   R22        3.92528   0.00000   0.00000   0.00000   0.00000   3.92528
   R23        3.92426   0.00000   0.00000   0.00000   0.00000   3.92426
   R24        3.92528   0.00000   0.00000   0.00000   0.00000   3.92528
   R25        3.92426   0.00000   0.00000   0.00000   0.00000   3.92426
   R26        4.29929   0.00000   0.00000   0.00000   0.00000   4.29929
   R27        2.48369   0.00000   0.00000   0.00000   0.00000   2.48368
   R28        2.48397   0.00000   0.00000   0.00000   0.00000   2.48397
   R29        2.87039   0.00000   0.00000   0.00000   0.00000   2.87039
   R30        2.48369   0.00000   0.00000   0.00000   0.00000   2.48369
   R31        1.85491   0.00000   0.00000   0.00000   0.00000   1.85491
   R32        1.85491   0.00000   0.00000   0.00000   0.00000   1.85491
   R33        2.87099   0.00000   0.00000   0.00000   0.00000   2.87099
   R34        2.09048   0.00000   0.00000   0.00000   0.00000   2.09048
   R35        2.08183   0.00000   0.00000   0.00000   0.00000   2.08183
   R36        2.08183   0.00000   0.00000   0.00000   0.00000   2.08183
   R37        2.09050   0.00000   0.00000   0.00000   0.00000   2.09050
   R38        2.08185   0.00000   0.00000   0.00000   0.00000   2.08184
   R39        2.08185   0.00000   0.00000   0.00000   0.00000   2.08184
    A1        2.04744   0.00000   0.00000   0.00000   0.00000   2.04744
    A2        2.04744   0.00000   0.00000   0.00000   0.00000   2.04744
    A3        2.18810   0.00000   0.00000   0.00000   0.00000   2.18810
    A4        1.90863   0.00000   0.00000   0.00000   0.00000   1.90863
    A5        1.92162   0.00000   0.00000   0.00000   0.00000   1.92162
    A6        1.92162   0.00000   0.00000   0.00000   0.00000   1.92162
    A7        1.88966   0.00000   0.00000   0.00000   0.00000   1.88966
    A8        1.88966   0.00000   0.00000   0.00000   0.00000   1.88966
    A9        1.93195   0.00000   0.00000   0.00000   0.00000   1.93195
   A10        2.04856   0.00000   0.00000   0.00000   0.00000   2.04856
   A11        2.04856   0.00000   0.00000   0.00000   0.00000   2.04856
   A12        2.18585   0.00000   0.00000   0.00000   0.00000   2.18585
   A13        1.90887   0.00000   0.00000   0.00000   0.00000   1.90887
   A14        1.92220   0.00000   0.00000   0.00000   0.00000   1.92220
   A15        1.92220   0.00000   0.00000   0.00000   0.00000   1.92220
   A16        1.88994   0.00000   0.00000   0.00000   0.00000   1.88994
   A17        1.88994   0.00000   0.00000   0.00000   0.00000   1.88994
   A18        1.93001   0.00000   0.00000   0.00000   0.00000   1.93001
   A19        2.07510   0.00000   0.00000   0.00000   0.00000   2.07510
   A20        2.07510   0.00000   0.00000   0.00000   0.00000   2.07510
   A21        2.07650   0.00000   0.00000   0.00000   0.00000   2.07650
   A22        2.07650   0.00000   0.00000   0.00000   0.00000   2.07650
   A23        2.14985   0.00000   0.00000   0.00000   0.00000   2.14985
   A24        2.14985   0.00000   0.00000   0.00000   0.00000   2.14985
   A25        1.98349   0.00000   0.00000   0.00000   0.00000   1.98349
   A26        1.56988   0.00000   0.00001   0.00000   0.00001   1.56989
   A27        1.57017   0.00000  -0.00001   0.00000  -0.00001   1.57016
   A28        1.59841   0.00000   0.00000   0.00000   0.00000   1.59841
   A29        1.54318   0.00000   0.00000   0.00000   0.00000   1.54318
   A30        1.59868   0.00000   0.00000   0.00000   0.00000   1.59868
   A31        1.54291   0.00000   0.00000   0.00000   0.00000   1.54291
   A32        1.57017   0.00000  -0.00001   0.00000  -0.00001   1.57016
   A33        1.59868   0.00000   0.00000   0.00000   0.00000   1.59868
   A34        1.54291   0.00000   0.00000   0.00000   0.00000   1.54291
   A35        1.56988   0.00000   0.00001   0.00000   0.00001   1.56989
   A36        1.59841   0.00000   0.00000   0.00000   0.00000   1.59841
   A37        1.54318   0.00000   0.00000   0.00000   0.00000   1.54318
   A38        1.54318   0.00000   0.00000   0.00000   0.00000   1.54318
   A39        1.56988   0.00000   0.00001   0.00000   0.00001   1.56989
   A40        1.57017   0.00000  -0.00001   0.00000  -0.00001   1.57016
   A41        1.59841   0.00000   0.00000   0.00000   0.00000   1.59841
   A42        1.54291   0.00000   0.00000   0.00000   0.00000   1.54291
   A43        1.54318   0.00000   0.00000   0.00000   0.00000   1.54318
   A44        1.54291   0.00000   0.00000   0.00000   0.00000   1.54291
   A45        1.57017   0.00000  -0.00001   0.00000  -0.00001   1.57016
   A46        1.59868   0.00000   0.00000   0.00000   0.00000   1.59868
   A47        1.56988   0.00000   0.00001   0.00000   0.00001   1.56989
   A48        1.59841   0.00000   0.00000   0.00000   0.00000   1.59841
   A49        1.59868   0.00000   0.00000   0.00000   0.00000   1.59868
   A50        2.07510   0.00000   0.00000   0.00000   0.00000   2.07510
   A51        2.07650   0.00000   0.00000   0.00000   0.00000   2.07650
   A52        2.18585   0.00000   0.00000   0.00000   0.00000   2.18585
   A53        2.04856   0.00000   0.00000   0.00000   0.00000   2.04856
   A54        2.04856   0.00000   0.00000   0.00000   0.00000   2.04856
   A55        2.07510   0.00000   0.00000   0.00000   0.00000   2.07510
   A56        2.07650   0.00000   0.00000   0.00000   0.00000   2.07650
   A57        2.14985   0.00000   0.00000   0.00000   0.00000   2.14985
   A58        2.14985   0.00000   0.00000   0.00000   0.00000   2.14985
   A59        1.98349   0.00000   0.00000   0.00000   0.00000   1.98349
   A60        2.18810   0.00000   0.00000   0.00000   0.00000   2.18810
   A61        2.04744   0.00000   0.00000   0.00000   0.00000   2.04744
   A62        2.04744   0.00000   0.00000   0.00000   0.00000   2.04744
   A63        1.90887   0.00000   0.00000   0.00000   0.00000   1.90887
   A64        1.92220   0.00000   0.00000   0.00000   0.00000   1.92220
   A65        1.92220   0.00000   0.00000   0.00000   0.00000   1.92220
   A66        1.88994   0.00000   0.00000   0.00000   0.00000   1.88994
   A67        1.88994   0.00000   0.00000   0.00000   0.00000   1.88994
   A68        1.93001   0.00000   0.00000   0.00000   0.00000   1.93001
   A69        1.90863   0.00000   0.00000   0.00000   0.00000   1.90863
   A70        1.92162   0.00000   0.00000   0.00000   0.00000   1.92162
   A71        1.92162   0.00000   0.00000   0.00000   0.00000   1.92162
   A72        1.88966   0.00000   0.00000   0.00000   0.00000   1.88966
   A73        1.88966   0.00000   0.00000   0.00000   0.00000   1.88966
   A74        1.93195   0.00000   0.00000   0.00000   0.00000   1.93195
    D1        1.56036   0.00000   0.00000  -0.00001   0.00000   1.56036
    D2       -2.64865   0.00000   0.00000  -0.00001   0.00000  -2.64866
    D3       -0.51381   0.00000   0.00000  -0.00001   0.00000  -0.51382
    D4       -1.56036   0.00000   0.00000   0.00001   0.00000  -1.56036
    D5        0.51381   0.00000   0.00000   0.00001   0.00000   0.51382
    D6        2.64865   0.00000   0.00000   0.00001   0.00000   2.64866
    D7       -3.10255   0.00000   0.00000   0.00001   0.00001  -3.10254
    D8        0.01630   0.00000   0.00001   0.00000   0.00000   0.01630
    D9        3.10255   0.00000   0.00000  -0.00001  -0.00001   3.10254
   D10       -0.01630   0.00000  -0.00001   0.00000   0.00000  -0.01630
   D11        1.56016   0.00000   0.00000   0.00000   0.00000   1.56016
   D12       -2.64802   0.00000   0.00000   0.00000   0.00000  -2.64802
   D13       -0.51485   0.00000   0.00000   0.00000   0.00000  -0.51485
   D14       -1.56016   0.00000   0.00000   0.00000   0.00000  -1.56016
   D15        0.51485   0.00000   0.00000   0.00000   0.00000   0.51485
   D16        2.64802   0.00000   0.00000   0.00000   0.00000   2.64802
   D17       -3.10195   0.00000   0.00000   0.00000   0.00000  -3.10195
   D18        0.01651   0.00000   0.00000  -0.00001  -0.00001   0.01650
   D19        3.10195   0.00000   0.00000   0.00000   0.00000   3.10195
   D20       -0.01651   0.00000   0.00000   0.00001   0.00001  -0.01650
   D21       -1.55041   0.00000   0.00000   0.00000   0.00000  -1.55041
   D22        1.53543   0.00000   0.00000   0.00000   0.00000   1.53543
   D23        3.13411   0.00000   0.00000   0.00000   0.00000   3.13411
   D24       -0.00748   0.00000   0.00000   0.00000   0.00000  -0.00748
   D25       -0.01474   0.00000   0.00000   0.00000   0.00000  -0.01474
   D26        0.00748   0.00000   0.00000   0.00000   0.00000   0.00748
   D27        1.55041   0.00000   0.00000   0.00000   0.00000   1.55041
   D28       -1.53543   0.00000   0.00000   0.00000   0.00000  -1.53543
   D29       -3.13411   0.00000   0.00000   0.00000   0.00000  -3.13411
   D30        0.01474   0.00000   0.00000   0.00000   0.00000   0.01475
   D31        1.53560   0.00000   0.00000   0.00000   0.00000   1.53560
   D32        3.13400   0.00000   0.00000   0.00000   0.00000   3.13400
   D33       -0.00759   0.00000   0.00000   0.00000   0.00000  -0.00759
   D34       -1.55078   0.00000   0.00000   0.00000   0.00000  -1.55078
   D35       -1.55078   0.00000   0.00000   0.00000   0.00000  -1.55078
   D36        3.13400   0.00000   0.00000   0.00000   0.00000   3.13400
   D37       -0.00759   0.00000   0.00000   0.00000   0.00000  -0.00759
   D38        1.53560   0.00000   0.00000   0.00000   0.00000   1.53560
   D39        0.01651   0.00000   0.00000  -0.00001  -0.00001   0.01650
   D40       -3.10195   0.00000   0.00000   0.00000   0.00000  -3.10195
   D41        1.56501   0.00000   0.00000   0.00000   0.00000   1.56501
   D42       -0.00564   0.00000  -0.00001  -0.00001  -0.00001  -0.00565
   D43        3.13595   0.00000  -0.00001  -0.00001  -0.00001   3.13594
   D44       -1.57659   0.00000   0.00000   0.00000   0.00000  -1.57659
   D45       -1.57659   0.00000   0.00000   0.00000   0.00000  -1.57658
   D46        3.13595   0.00000  -0.00001   0.00000  -0.00001   3.13594
   D47       -0.00564   0.00000  -0.00001   0.00000  -0.00001  -0.00565
   D48        1.56501   0.00000   0.00000   0.00000   0.00000   1.56501
   D49        1.56501   0.00000   0.00000   0.00000   0.00000   1.56501
   D50       -0.00564   0.00000  -0.00001  -0.00001  -0.00001  -0.00565
   D51       -1.57659   0.00000   0.00000   0.00000   0.00000  -1.57659
   D52        3.13595   0.00000  -0.00001  -0.00001  -0.00001   3.13594
   D53       -1.57659   0.00000   0.00000   0.00000   0.00000  -1.57658
   D54        3.13595   0.00000  -0.00001   0.00000  -0.00001   3.13594
   D55        1.56501   0.00000   0.00000   0.00000   0.00000   1.56501
   D56       -0.00564   0.00000  -0.00001   0.00000  -0.00001  -0.00565
   D57        3.14159   0.00000   0.00000   0.00000   0.00000   3.14159
   D58        0.00000   0.00000   0.00000   0.00000   0.00000   0.00000
   D59        0.00000   0.00000   0.00000   0.00000   0.00000   0.00000
   D60        3.14159   0.00000   0.00000   0.00000   0.00000  -3.14159
   D61        0.00000   0.00000   0.00000   0.00000   0.00000   0.00000
   D62       -1.57065   0.00000  -0.00001   0.00000  -0.00001  -1.57066
   D63        3.14159   0.00000   0.00000   0.00000   0.00000   3.14159
   D64        1.57094   0.00000  -0.00001   0.00000  -0.00001   1.57093
   D65        1.57065   0.00000   0.00001   0.00000   0.00001   1.57066
   D66        0.00000   0.00000   0.00000   0.00000   0.00000   0.00000
   D67       -1.57094   0.00000   0.00001   0.00000   0.00001  -1.57093
   D68        3.14159   0.00000   0.00000   0.00000   0.00000   3.14159
   D69       -1.57094   0.00000   0.00001   0.00000   0.00001  -1.57093
   D70        3.14159   0.00000   0.00000   0.00000   0.00000   3.14159
   D71        1.57065   0.00000   0.00001   0.00000   0.00001   1.57066
   D72        0.00000   0.00000   0.00000   0.00000   0.00000   0.00000
   D73        3.14159   0.00000   0.00000   0.00000   0.00000   3.14159
   D74        1.57094   0.00000  -0.00001   0.00000  -0.00001   1.57093
   D75        0.00000   0.00000   0.00000   0.00000   0.00000   0.00000
   D76       -1.57065   0.00000  -0.00001   0.00000  -0.00001  -1.57066
   D77        1.53543   0.00000   0.00000   0.00000   0.00000   1.53543
   D78       -1.55041   0.00000   0.00000   0.00000   0.00000  -1.55041
   D79        3.13411   0.00000   0.00000   0.00000   0.00000   3.13411
   D80       -0.00748   0.00000   0.00000   0.00000   0.00000  -0.00748
   D81        1.57659   0.00000   0.00000   0.00000   0.00000   1.57659
   D82       -1.56501   0.00000   0.00000   0.00000   0.00000  -1.56501
   D83       -3.13595   0.00000   0.00001   0.00001   0.00001  -3.13594
   D84        0.00564   0.00000   0.00001   0.00000   0.00001   0.00565
   D85        0.00564   0.00000   0.00001   0.00001   0.00001   0.00565
   D86       -3.13595   0.00000   0.00001   0.00000   0.00001  -3.13594
   D87       -1.56501   0.00000   0.00000   0.00000   0.00000  -1.56501
   D88        1.57659   0.00000   0.00000   0.00000   0.00000   1.57658
   D89       -1.53560   0.00000   0.00000   0.00000   0.00000  -1.53560
   D90        0.00759   0.00000   0.00000   0.00000   0.00000   0.00759
   D91        1.55078   0.00000   0.00000   0.00000   0.00000   1.55078
   D92       -3.13400   0.00000   0.00000   0.00000   0.00000  -3.13400
   D93        0.01496   0.00000   0.00000   0.00000  -0.00001   0.01496
   D94        0.00748   0.00000   0.00000   0.00000   0.00000   0.00748
   D95       -1.53543   0.00000   0.00000   0.00000   0.00000  -1.53543
   D96        1.55041   0.00000   0.00000   0.00000   0.00000   1.55041
   D97       -3.13411   0.00000   0.00000   0.00000   0.00000  -3.13411
   D98        1.55078   0.00000   0.00000   0.00000   0.00000   1.55078
   D99        0.00759   0.00000   0.00000   0.00000   0.00000   0.00759
   D100      -1.53560   0.00000   0.00000   0.00000   0.00000  -1.53560
   D101      -3.13400   0.00000   0.00000   0.00000   0.00000  -3.13400
   D102       1.57659   0.00000   0.00000   0.00000   0.00000   1.57659
   D103      -1.56501   0.00000   0.00000   0.00000   0.00000  -1.56501
   D104      -3.13595   0.00000   0.00001   0.00001   0.00001  -3.13594
   D105       0.00564   0.00000   0.00001   0.00000   0.00001   0.00565
   D106      -1.56501   0.00000   0.00000   0.00000   0.00000  -1.56501
   D107       1.57659   0.00000   0.00000   0.00000   0.00000   1.57658
   D108       0.00564   0.00000   0.00001   0.00001   0.00001   0.00565
   D109      -3.13595   0.00000   0.00001   0.00000   0.00001  -3.13594
   D110       0.01630   0.00000   0.00001   0.00000   0.00000   0.01630
   D111      -3.10255   0.00000   0.00000   0.00001   0.00001  -3.10254
   D112      -0.01651   0.00000   0.00000   0.00001   0.00001  -0.01650
   D113       3.10195   0.00000   0.00000   0.00000   0.00000   3.10195
   D114       1.56016   0.00000   0.00000   0.00000   0.00000   1.56016
   D115      -0.51485   0.00000   0.00000   0.00000   0.00000  -0.51485
   D116      -2.64802   0.00000   0.00000   0.00000   0.00000  -2.64802
   D117      -1.56016   0.00000   0.00000   0.00000   0.00000  -1.56016
   D118       2.64802   0.00000   0.00000   0.00000   0.00000   2.64802
   D119       0.51485   0.00000   0.00000   0.00000   0.00000   0.51485
   D120      -0.01630   0.00000  -0.00001   0.00000   0.00000  -0.01630
   D121       3.10255   0.00000   0.00000  -0.00001  -0.00001   3.10254
   D122       1.56036   0.00000   0.00000  -0.00001   0.00000   1.56036
   D123      -0.51381   0.00000   0.00000  -0.00001   0.00000  -0.51382
   D124      -2.64865   0.00000   0.00000  -0.00001   0.00000  -2.64866
   D125      -1.56036   0.00000   0.00000   0.00001   0.00000  -1.56036
   D126       2.64865   0.00000   0.00000   0.00001   0.00000   2.64866
   D127       0.51381   0.00000   0.00000   0.00001   0.00000   0.51382
         Item               Value     Threshold  Converged?
 Maximum Force            0.000000     0.000002     YES
 RMS     Force            0.000000     0.000001     YES
 Maximum Displacement     0.000081     0.000006     NO 
 RMS     Displacement     0.000021     0.000004     NO 
 Predicted change in Energy=-5.234157D-11
 GradGradGradGradGradGradGradGradGradGradGradGradGradGradGradGradGradGrad

 Leave Link  103 at Sun Nov 24 22:16:47 2013, MaxMem=   33554432 cpu:       0.3
 (Enter /net/cottusp/opt/gaussian/g09revA02_amd64/g09/l202.exe)
                          Input orientation:                          
 ---------------------------------------------------------------------
 Center     Atomic      Atomic             Coordinates (Angstroms)
 Number     Number       Type             X           Y           Z
 ---------------------------------------------------------------------
      1          6           0       -0.008632    2.679440    0.000000
      2          6           0       -0.061034    4.197798    0.000000
      3          6           0        2.680261    0.009116    0.000000
      4          6           0        4.198269    0.062469    0.000000
      5          1           0       -1.116772    4.528238    0.000000
      6          1           0        0.424669    4.593395    0.906234
      7          1           0        0.424669    4.593395   -0.906235
      8          1           0        4.528288    1.118331    0.000000
      9          1           0        4.594795   -0.423606    0.905618
     10          1           0        4.594795   -0.423606   -0.905618
     11          8           0       -0.000017    2.076379   -1.167755
     12          8           0       -0.000017    2.076379    1.167755
     13          8           0        2.075820    0.000299   -1.167208
     14          8           0       -2.075820   -0.000299   -1.167208
     15          8           0        0.000000    0.000000   -3.500196
     16         45           0        0.000000    0.000000   -1.225110
     17         45           0        0.000000    0.000000    1.225110
     18          8           0        0.000018   -2.076379   -1.167755
     19          8           0        2.075820    0.000299    1.167208
     20          6           0       -2.680261   -0.009116    0.000000
     21          8           0        0.000017   -2.076379    1.167755
     22          8           0       -2.075820   -0.000299    1.167208
     23          8           0        0.000000    0.000000    3.500196
     24          6           0        0.008632   -2.679440    0.000000
     25          6           0       -4.198269   -0.062469    0.000000
     26          6           0        0.061034   -4.197798    0.000000
     27          1           0        1.116772   -4.528238    0.000000
     28          1           0       -0.424669   -4.593395   -0.906234
     29          1           0       -0.424669   -4.593395    0.906235
     30          1           0       -4.528288   -1.118331    0.000000
     31          1           0       -4.594795    0.423606   -0.905618
     32          1           0       -4.594795    0.423606    0.905618
     33          1           0       -0.821551   -0.004763    4.037344
     34          1           0        0.821551    0.004762    4.037344
     35          1           0        0.821551    0.004763   -4.037344
     36          1           0       -0.821551   -0.004762   -4.037344
 ---------------------------------------------------------------------
                    Distance matrix (angstroms):
                    1          2          3          4          5
     1  C    0.000000
     2  C    1.519262   0.000000
     3  C    3.789562   5.005972   0.000000
     4  C    4.954448   5.936548   1.518945   0.000000
     5  H    2.155465   1.106243   5.902536   6.942100   0.000000
     6  H    2.161535   1.101665   5.188889   5.965787   1.789287
     7  H    2.161535   1.101665   5.188889   5.965786   1.789287
     8  H    4.797990   5.526752   2.155356   1.106235   6.595011
     9  H    5.624996   6.622255   2.161673   1.101656   7.613337
    10  H    5.624996   6.622255   2.161673   1.101656   7.613337
    11  O    1.314310   2.422353   3.580659   4.800531   2.936394
    12  O    1.314309   2.422353   3.580660   4.800531   2.936394
    13  O    3.589584   4.852578   1.314458   2.423021   5.661912
    14  O    3.580034   4.800599   4.897221   6.382046   4.773866
    15  O    4.408043   5.465949   4.408543   5.466328   5.831251
    16  Rh   2.946247   4.373343   2.946995   4.373816   4.822138
    17  Rh   2.946246   4.373343   2.946995   4.373816   4.822138
    18  O    4.897095   6.382215   3.591190   4.854240   6.799400
    19  O    3.589583   4.852578   1.314459   2.423021   5.661912
    20  C    3.790242   4.955651   5.360554   6.878903   4.799175
    21  O    4.897095   6.382215   3.591190   4.854240   6.799400
    22  O    3.580033   4.800599   4.897221   6.382046   4.773866
    23  O    4.408043   5.465950   4.408543   5.466328   5.831252
    24  C    5.358908   6.877591   3.790243   5.007108   7.295009
    25  C    5.007108   5.938568   6.878903   8.397468   5.529034
    26  C    6.877591   8.396483   4.955651   5.938568   8.805165
    27  H    7.295009   8.805165   4.799175   5.529035   9.327834
    28  H    7.340877   8.845257   5.625385   6.623435   9.192631
    29  H    7.340877   8.845256   5.625385   6.623435   9.192631
    30  H    5.903419   6.943888   7.296185   8.806083   6.597135
    31  H    5.190552   5.968221   7.342914   8.846951   5.455712
    32  H    5.190551   5.968221   7.342914   8.846951   5.455712
    33  H    4.915886   5.877079   5.344439   6.442302   6.077451
    34  H    4.913579   5.887330   4.444657   5.263621   6.365460
    35  H    4.913578   5.887329   4.444657   5.263621   6.365459
    36  H    4.915885   5.877078   5.344439   6.442303   6.077450
                    6          7          8          9         10
     6  H    0.000000
     7  H    1.812469   0.000000
     8  H    5.453166   5.453166   0.000000
     9  H    6.523822   6.770750   1.789451   0.000000
    10  H    6.770750   6.523821   1.789451   1.811237   0.000000
    11  O    3.288946   2.565954   4.773579   5.626820   5.237455
    12  O    2.565954   3.288946   4.773579   5.237456   5.626820
    13  O    5.303018   4.887836   2.937170   3.289611   2.567754
    14  O    5.626156   5.236657   6.799114   6.998064   6.689149
    15  O    6.379361   5.292282   5.831589   6.379873   5.293715
    16  Rh   5.081560   4.623992   4.822546   5.082478   4.625328
    17  Rh   4.623992   5.081560   4.822546   4.625328   5.082478
    18  O    6.997689   6.688393   5.663485   5.304952   4.890026
    19  O    4.887836   5.303017   2.937170   2.567754   3.289611
    20  C    5.625385   5.625385   7.296185   7.342914   7.342914
    21  O    6.688393   6.997688   5.663485   4.890026   5.304952
    22  O    5.236657   5.626156   6.799114   6.689149   6.998064
    23  O    5.292283   6.379361   5.831589   5.293715   6.379873
    24  C    7.340877   7.340877   5.903419   5.190551   5.190552
    25  C    6.623435   6.623435   8.806083   8.846951   8.846951
    26  C    8.845257   8.845256   6.943888   5.968221   5.968221
    27  H    9.192631   9.192631   6.597135   5.455712   5.455712
    28  H    9.402315   9.225968   7.614253   6.772368   6.525501
    29  H    9.225968   9.402315   7.614254   6.525501   6.772368
    30  H    7.614254   7.614253   9.328678   9.194206   9.194206
    31  H    6.772368   6.525501   9.194206   9.404622   9.228561
    32  H    6.525501   6.772368   9.194206   9.228561   9.404622
    33  H    5.700875   6.865500   6.795753   6.270561   7.344733
    34  H    5.569284   6.756630   5.592860   4.922254   6.233278
    35  H    6.756629   5.569282   5.592860   6.233278   4.922254
    36  H    6.865499   5.700873   6.795753   7.344733   6.270561
                   11         12         13         14         15
    11  O    0.000000
    12  O    2.335511   0.000000
    13  O    2.935849   3.751168   0.000000
    14  O    2.936247   3.751480   4.151640   0.000000
    15  O    3.122759   5.108925   3.122797   3.122797   0.000000
    16  Rh   2.077171   3.168147   2.076627   2.076627   2.275086
    17  Rh   3.168147   2.077171   3.167367   3.167367   4.725306
    18  O    4.152758   4.764453   2.936247   2.935849   3.122760
    19  O    3.751168   2.935849   2.334415   4.762941   5.108198
    20  C    3.591190   3.591191   4.897221   1.314458   4.408543
    21  O    4.764452   4.152758   3.751479   3.751168   5.108925
    22  O    3.751479   2.936247   4.762941   2.334415   5.108198
    23  O    5.108925   3.122760   5.108198   5.108198   7.000391
    24  C    4.897095   4.897095   3.580034   3.589583   4.408043
    25  C    4.854240   4.854240   6.382046   2.423021   5.466328
    26  C    6.382215   6.382216   4.800599   4.852578   5.465950
    27  H    6.799400   6.799400   4.773866   5.661912   5.831252
    28  H    6.688393   6.997689   5.236657   4.887835   5.292283
    29  H    6.997688   6.688393   5.626156   5.303017   6.379361
    30  H    5.663484   5.663485   6.799114   2.937170   5.831589
    31  H    4.890026   5.304952   6.689149   2.567754   5.293715
    32  H    5.304952   4.890026   6.998064   3.289611   6.379873
    33  H    5.665610   3.638765   5.956689   5.353557   7.582182
    34  H    5.662123   3.633334   5.353557   5.956689   7.582182
    35  H    3.633333   5.662122   3.132235   4.078292   0.981579
    36  H    3.638764   5.665609   4.078292   3.132235   0.981579
                   16         17         18         19         20
    16  Rh   0.000000
    17  Rh   2.450220   0.000000
    18  O    2.077171   3.168147   0.000000
    19  O    3.167367   2.076627   3.751480   0.000000
    20  C    2.946995   2.946995   3.580660   4.897221   0.000000
    21  O    3.168147   2.077171   2.335511   2.936247   3.580659
    22  O    3.167367   2.076627   3.751168   4.151640   1.314459
    23  O    4.725306   2.275086   5.108925   3.122797   4.408543
    24  C    2.946246   2.946247   1.314309   3.580034   3.789562
    25  C    4.373816   4.373815   4.800531   6.382046   1.518945
    26  C    4.373343   4.373343   2.422353   4.800599   5.005972
    27  H    4.822138   4.822138   2.936394   4.773866   5.902536
    28  H    4.623992   5.081560   2.565954   5.626156   5.188889
    29  H    5.081560   4.623992   3.288946   5.236657   5.188889
    30  H    4.822546   4.822546   4.773579   6.799114   2.155356
    31  H    4.625328   5.082478   5.237456   6.998064   2.161673
    32  H    5.082478   4.625328   5.626820   6.689149   2.161673
    33  H    5.326199   2.929783   5.662122   4.078292   4.444657
    34  H    5.326199   2.929783   5.665609   3.132235   5.344439
    35  H    2.929783   5.326199   3.638765   5.353557   5.344439
    36  H    2.929783   5.326199   3.633334   5.956689   4.444657
                   21         22         23         24         25
    21  O    0.000000
    22  O    2.935849   0.000000
    23  O    3.122759   3.122797   0.000000
    24  C    1.314310   3.589584   4.408043   0.000000
    25  C    4.800531   2.423021   5.466328   4.954448   0.000000
    26  C    2.422353   4.852578   5.465949   1.519262   5.936548
    27  H    2.936394   5.661912   5.831251   2.155465   6.942100
    28  H    3.288946   5.303018   6.379361   2.161535   5.965787
    29  H    2.565954   4.887836   5.292282   2.161535   5.965786
    30  H    4.773579   2.937170   5.831589   4.797990   1.106235
    31  H    5.626820   3.289611   6.379873   5.624996   1.101656
    32  H    5.237455   2.567754   5.293715   5.624996   1.101656
    33  H    3.633333   3.132235   0.981579   4.913578   5.263621
    34  H    3.638764   4.078292   0.981579   4.915885   6.442302
    35  H    5.665610   5.956689   7.582182   4.915886   6.442303
    36  H    5.662123   5.353557   7.582182   4.913579   5.263621
                   26         27         28         29         30
    26  C    0.000000
    27  H    1.106243   0.000000
    28  H    1.101665   1.789287   0.000000
    29  H    1.101665   1.789287   1.812469   0.000000
    30  H    5.526752   6.595011   5.453166   5.453166   0.000000
    31  H    6.622255   7.613337   6.523822   6.770750   1.789451
    32  H    6.622255   7.613337   6.770750   6.523821   1.789451
    33  H    5.887329   6.365459   6.756629   5.569282   5.592860
    34  H    5.877078   6.077449   6.865499   5.700873   6.795753
    35  H    5.877079   6.077451   5.700875   6.865500   6.795753
    36  H    5.887330   6.365460   5.569284   6.756630   5.592861
                   31         32         33         34         35
    31  H    0.000000
    32  H    1.811237   0.000000
    33  H    6.233278   4.922254   0.000000
    34  H    7.344733   6.270561   1.643129   0.000000
    35  H    6.270561   7.344733   8.240174   8.074689   0.000000
    36  H    4.922254   6.233278   8.074689   8.240174   1.643129
                   36
    36  H    0.000000
 Symmetry turned off by external request.
 Stoichiometry    C8H16O10Rh2
 Framework group  C1[X(C8H16O10Rh2)]
 Deg. of freedom   102
 Full point group                 C1      NOp   1
 Rotational constants (GHZ):      0.2593921      0.2590111      0.2521354
 Leave Link  202 at Sun Nov 24 22:16:47 2013, MaxMem=   33554432 cpu:       0.0
 (Enter /net/cottusp/opt/gaussian/g09revA02_amd64/g09/l301.exe)
 Standard basis: LANL2DZ (5D, 7F)
 Ernie: Thresh=  0.10000D-02 Tol=  0.10000D-05 Strict=F.
 Ernie:  2 primitive shells out of 370 were deleted.
 Integral buffers will be    131072 words long.
 Raffenetti 2 integral format.
 Two-electron integral symmetry is turned off.
   238 basis functions,   612 primitive gaussians,   242 cartesian basis functions
    89 alpha electrons       89 beta electrons
       nuclear repulsion energy      2357.7433716542 Hartrees.
 IExCor=  404 DFT=T Ex=B Corr=P86 ExCW=0 ScaHFX=  0.000000
 ScaDFX=  1.000000  1.000000  1.000000  1.000000 ScalE2=  1.000000  1.000000
 IRadAn=      5 IRanWt=     -1 IRanGd=            0 ICorTp=0
 NAtoms=   36 NActive=   36 NUniq=   36 SFac= 7.50D-01 NAtFMM=   80 NAOKFM=F Big=F
 Leave Link  301 at Sun Nov 24 22:16:47 2013, MaxMem=   33554432 cpu:       0.1
 (Enter /net/cottusp/opt/gaussian/g09revA02_amd64/g09/l302.exe)
 NPDir=0 NMtPBC=     1 NCelOv=     1 NCel=       1 NClECP=     1 NCelD=      1
         NCelK=      1 NCelE2=     1 NClLst=     1 CellRange=     0.0.
 One-electron integrals computed using PRISM.
   1 Symmetry operations used in ECPInt.
 ECPInt:  NShTT=    9591 NPrTT=   68474 LenC2=    9087 LenP2D=   38378.
 LDataN:  DoStor=T MaxTD1= 5 Len=  102
 NBasis=   238 RedAO= T  NBF=   238
 NBsUse=   238 1.00D-06 NBFU=   238
 Precomputing XC quadrature grid using
 IXCGrd= 2 IRadAn=           5 IRanWt=          -1 IRanGd=           0 AccXCQ= 1.00D-10.
 Defaulting to unpruned grid for atomic number  45.
 NRdTot=    3098 NPtTot=      879952 NUsed=      902119 NTot=      902151
 NSgBfM=   242   242   242   242   242 NAtAll=    36    36.
 Leave Link  302 at Sun Nov 24 22:16:52 2013, MaxMem=   33554432 cpu:       9.0
 (Enter /net/cottusp/opt/gaussian/g09revA02_amd64/g09/l303.exe)
 DipDrv:  MaxL=1.
 Leave Link  303 at Sun Nov 24 22:16:53 2013, MaxMem=   33554432 cpu:       0.4
 (Enter /net/cottusp/opt/gaussian/g09revA02_amd64/g09/l401.exe)
 Initial guess read from the read-write file.
 B after Tr=     0.000000    0.000000    0.000000
         Rot=    1.000000    0.000000    0.000000    0.000000 Ang=   0.00 deg.
 Guess basis will be translated and rotated to current coordinates.
 Leave Link  401 at Sun Nov 24 22:16:54 2013, MaxMem=   33554432 cpu:       0.7
 (Enter /net/cottusp/opt/gaussian/g09revA02_amd64/g09/l502.exe)
 Closed shell SCF:
 Requested convergence on RMS density matrix=1.00D-08 within 128 cycles.
 Requested convergence on MAX density matrix=1.00D-06.
 Requested convergence on             energy=1.00D-06.
 No special actions if energy rises.
 Using DIIS extrapolation, IDIIS=  1040.
 Two-electron integral symmetry not used.
       901782 words used for storage of precomputed grid.
 IEnd=     1098596 IEndB=     1098596 NGot=    33554432 MDV=    32531283
 LenX=    32531283 LenY=    32472278
 Fock matrices will be formed incrementally for  20 cycles.

 Cycle   1  Pass 1  IDiag  1:
 FoFCou: FMM=F IPFlag=           0 FMFlag=      100000 FMFlg1=           0
         NFxFlg=           0 DoJE=T BraDBF=F KetDBF=F FulRan=T
         Omega=  0.000000  0.000000  1.000000  0.000000  0.000000 ICntrl=     500 IOpCl=  0
         NMat0=    1 NMatS0=    1 NMatT0=    0 NMatD0=    1 NMtDS0=    0 NMtDT0=    0
         I1Cent=           0 NGrid=           0.
 Symmetry not used in FoFCou.
 Defaulting to unpruned grid for atomic number  45.
 Defaulting to unpruned grid for atomic number  45.
 E= -1286.10632675401    
 DIIS: error= 1.08D-06 at cycle   1 NSaved=   1.
 NSaved= 1 IEnMin= 1 EnMin= -1286.10632675401     IErMin= 1 ErrMin= 1.08D-06
 ErrMax= 1.08D-06 EMaxC= 1.00D-01 BMatC= 1.54D-10 BMatP= 1.54D-10
 IDIUse=1 WtCom= 1.00D+00 WtEn= 0.00D+00
 Coeff-Com:  0.100D+01
 Coeff:      0.100D+01
 Gap=     0.066 Goal=   None    Shift=    0.000
 RMSDP=1.72D-07 MaxDP=3.62D-06              OVMax= 7.31D-06

 Cycle   2  Pass 1  IDiag  1:
 RMSU=  1.21D-07    CP:  1.00D+00
 E= -1286.10632675444     Delta-E=       -0.000000000430 Rises=F Damp=F
 DIIS: error= 2.75D-07 at cycle   2 NSaved=   2.
 NSaved= 2 IEnMin= 2 EnMin= -1286.10632675444     IErMin= 2 ErrMin= 2.75D-07
 ErrMax= 2.75D-07 EMaxC= 1.00D-01 BMatC= 8.17D-12 BMatP= 1.54D-10
 IDIUse=1 WtCom= 1.00D+00 WtEn= 0.00D+00
 Coeff-Com:  0.658D-01 0.934D+00
 Coeff:      0.658D-01 0.934D+00
 Gap=     0.066 Goal=   None    Shift=    0.000
 RMSDP=5.65D-08 MaxDP=2.13D-06 DE=-4.30D-10 OVMax= 5.02D-06

 Cycle   3  Pass 1  IDiag  1:
 RMSU=  3.88D-08    CP:  1.00D+00  9.24D-01
 E= -1286.10632675436     Delta-E=        0.000000000081 Rises=F Damp=F
 DIIS: error= 1.06D-06 at cycle   3 NSaved=   3.
 NSaved= 3 IEnMin= 2 EnMin= -1286.10632675444     IErMin= 2 ErrMin= 2.75D-07
 ErrMax= 1.06D-06 EMaxC= 1.00D-01 BMatC= 9.22D-11 BMatP= 8.17D-12
 IDIUse=1 WtCom= 1.00D+00 WtEn= 0.00D+00
 Coeff-Com:  0.111D-01 0.772D+00 0.217D+00
 Coeff:      0.111D-01 0.772D+00 0.217D+00
 Gap=     0.066 Goal=   None    Shift=    0.000
 RMSDP=3.67D-08 MaxDP=1.80D-06 DE= 8.09D-11 OVMax= 2.22D-06

 Cycle   4  Pass 1  IDiag  1:
 RMSU=  1.59D-08    CP:  1.00D+00  9.40D-01  4.75D-01
 E= -1286.10632675442     Delta-E=       -0.000000000058 Rises=F Damp=F
 DIIS: error= 1.11D-07 at cycle   4 NSaved=   4.
 NSaved= 4 IEnMin= 2 EnMin= -1286.10632675444     IErMin= 4 ErrMin= 1.11D-07
 ErrMax= 1.11D-07 EMaxC= 1.00D-01 BMatC= 1.61D-12 BMatP= 8.17D-12
 IDIUse=1 WtCom= 1.00D+00 WtEn= 0.00D+00
 Coeff-Com:  0.284D-02 0.407D+00 0.143D+00 0.447D+00
 Coeff:      0.284D-02 0.407D+00 0.143D+00 0.447D+00
 Gap=     0.066 Goal=   None    Shift=    0.000
 RMSDP=1.33D-08 MaxDP=1.08D-06 DE=-5.78D-11 OVMax= 1.37D-06

 Cycle   5  Pass 1  IDiag  1:
 RMSU=  7.07D-09    CP:  1.00D+00  9.49D-01  4.44D-01  6.25D-01
 E= -1286.10632675444     Delta-E=       -0.000000000022 Rises=F Damp=F
 DIIS: error= 2.33D-07 at cycle   5 NSaved=   5.
 NSaved= 5 IEnMin= 2 EnMin= -1286.10632675444     IErMin= 4 ErrMin= 1.11D-07
 ErrMax= 2.33D-07 EMaxC= 1.00D-01 BMatC= 3.73D-12 BMatP= 1.61D-12
 IDIUse=1 WtCom= 1.00D+00 WtEn= 0.00D+00
 Coeff-Com:  0.702D-03 0.243D+00 0.981D-01 0.464D+00 0.195D+00
 Coeff:      0.702D-03 0.243D+00 0.981D-01 0.464D+00 0.195D+00
 Gap=     0.066 Goal=   None    Shift=    0.000
 RMSDP=8.99D-09 MaxDP=8.11D-07 DE=-2.18D-11 OVMax= 1.05D-06

 SCF Done:  E(RB-P86) =  -1286.10632675     A.U. after    5 cycles
             Convg  =    0.8988D-08             -V/T =  2.1306
 KE= 1.137545893281D+03 PE=-7.687369363296D+03 EE= 2.905973771607D+03
 Leave Link  502 at Sun Nov 24 22:18:59 2013, MaxMem=   33554432 cpu:     249.7
 (Enter /net/cottusp/opt/gaussian/g09revA02_amd64/g09/l701.exe)
 Compute integral first derivatives.
 ... and contract with generalized density number  0.
 DipInt: DoE/N= T T RetVal/Mat= T F Init=T NMatP=  1 IDeriv=0 Min/MaxMlt=  1  1
 Entering OneElI...
 Multipole integrals L=1 to 1 MinM= 0 MaxM= 0.
 Requested accuracy = 0.1000D-12
 PrsmSu:  NPrtUS=   1 ThrOK=F IAlg=1
 PRISM was handed    32854801 working-precision words and  8506 shell-pairs
 IPart=  0 NShTot=        8506 NBatch=          74 AvBLen=       114.9
 Entering OneElI...
 Calculate overlap and kinetic energy integrals
    NBasis = 242  MinDer = 1  MaxDer = 1
 Requested accuracy = 0.1000D-12
 PrsmSu:  NPrtUS=   2 ThrOK=T IAlg=1
 PRISM was handed    16178298 working-precision words and  9194 shell-pairs
 PRISM was handed    16178298 working-precision words and  9194 shell-pairs
 IPart=  0 NShTot=        4599 NBatch=          86 AvBLen=        53.5
 IPart=  1 NShTot=        4595 NBatch=          86 AvBLen=        53.4
 Entering OneElI...
 Calculate potential energy integrals
    NBasis = 242  MinDer = 1  MaxDer = 1
 Requested accuracy = 0.1000D-12
 PrsmSu:  NPrtUS=   2 ThrOK=T IAlg=1
 PRISM was handed    16332618 working-precision words and  7870 shell-pairs
 PRISM was handed    16332618 working-precision words and  7870 shell-pairs
 IPart=  0 NShTot=      141732 NBatch=        3937 AvBLen=        36.0
 IPart=  1 NShTot=      141588 NBatch=        3933 AvBLen=        36.0
   1 Symmetry operations used in ECPInt.
 ECPInt:  NShTT=    9591 NPrTT=   68474 LenC2=    9087 LenP2D=   38378.
 LDataN:  DoStor=F MaxTD1= 6 Len=  172
 LDataN:  DoStor=T MaxTD1= 6 Len=  172
 ECPSu:  NPrtUS=   2 ThrOK=T
 FXYZ after ECPSu
 I=    0 X=   0.000000000000D+00 Y=   0.000000000000D+00 Z=   0.000000000000D+00
 I=    1 X=  -1.698523382949D-04 Y=  -1.160099299022D-02 Z=   0.000000000000D+00
 I=    2 X=   4.713226633583D-06 Y=   1.716124137687D-04 Z=   0.000000000000D+00
 I=    3 X=  -1.167844354995D-02 Y=   1.707310829790D-04 Z=   0.000000000000D+00
 I=    4 X=   1.671329364940D-04 Y=  -4.911481952671D-06 Z=   0.000000000000D+00
 I=    5 X=   1.684224138976D-08 Y=  -9.111038808334D-08 Z=   0.000000000000D+00
 I=    6 X=  -1.082456712037D-08 Y=  -1.234819133141D-07 Z=   0.000000000000D+00
 I=    7 X=  -1.082457403117D-08 Y=  -1.234819432364D-07 Z=   0.000000000000D+00
 I=    8 X=  -8.986980852602D-08 Y=  -1.649600071471D-08 Z=   0.000000000000D+00
 I=    9 X=  -1.223646139112D-07 Y=   1.062214989041D-08 Z=   0.000000000000D+00
 I=   10 X=  -1.223646852825D-07 Y=   1.062214575466D-08 Z=   0.000000000000D+00
 I=   11 X=   7.812602362432D-05 Y=   3.829204987497D-02 Z=   1.315303599911D-03
 I=   12 X=   7.812816211402D-05 Y=   3.829206810458D-02 Z=  -1.315304982186D-03
 I=   13 X=   3.791615489124D-02 Y=  -7.575145530499D-05 Z=   1.255008703247D-03
 I=   14 X=  -3.791615333369D-02 Y=   7.574884396329D-05 Z=   1.255008700307D-03
 I=   15 X=   0.000000000000D+00 Y=   0.000000000000D+00 Z=  -1.773397020169D-02
 I=   16 X=   0.000000000000D+00 Y=   0.000000000000D+00 Z=  -7.445938076986D-02
 I=   17 X=   0.000000000000D+00 Y=   0.000000000000D+00 Z=   7.445937761807D-02
 I=   18 X=  -7.812547262306D-05 Y=  -3.829206563371D-02 Z=   1.315304652739D-03
 I=   19 X=   3.791616100350D-02 Y=  -7.575259526614D-05 Z=  -1.255008759069D-03
 I=   20 X=   1.167844361892D-02 Y=  -1.707310986083D-04 Z=   0.000000000000D+00
 I=   21 X=  -7.812899611454D-05 Y=  -3.829205247187D-02 Z=  -1.315303923416D-03
 I=   22 X=  -3.791616227175D-02 Y=   7.575529207329D-05 Z=  -1.255008768109D-03
 I=   23 X=   0.000000000000D+00 Y=   0.000000000000D+00 Z=   1.773397061462D-02
 I=   24 X=   1.698523859626D-04 Y=   1.160099297775D-02 Z=   0.000000000000D+00
 I=   25 X=  -1.671329364817D-04 Y=   4.911482176462D-06 Z=   0.000000000000D+00
 I=   26 X=  -4.713227297872D-06 Y=  -1.716124134494D-04 Z=   0.000000000000D+00
 I=   27 X=  -1.684224086265D-08 Y=   9.111038774571D-08 Z=   0.000000000000D+00
 I=   28 X=   1.082456547147D-08 Y=   1.234819439296D-07 Z=   0.000000000000D+00
 I=   29 X=   1.082457677814D-08 Y=   1.234819121261D-07 Z=   0.000000000000D+00
 I=   30 X=   8.986980817759D-08 Y=   1.649600049791D-08 Z=   0.000000000000D+00
 I=   31 X=   1.223646166444D-07 Y=  -1.062214322223D-08 Z=   0.000000000000D+00
 I=   32 X=   1.223646830633D-07 Y=  -1.062215282341D-08 Z=   0.000000000000D+00
 I=   33 X=   9.436147481475D-05 Y=   4.816937215326D-07 Z=  -2.179099824141D-04
 I=   34 X=  -9.436147953826D-05 Y=  -4.815422415505D-07 Z=  -2.179099869056D-04
 I=   35 X=  -9.436146434714D-05 Y=  -4.816942233440D-07 Z=   2.179099695398D-04
 I=   36 X=   9.436146878115D-05 Y=   4.815422200223D-07 Z=   2.179099731664D-04
 l701 out
 I=    0 X=   0.000000000000D+00 Y=   0.000000000000D+00 Z=  -2.018879329491D-06
 I=    1 X=  -4.657552879857D-01 Y=   2.013193300725D+01 Z=  -4.435145029522D-06
 I=    2 X=   5.184618571756D-02 Y=   1.275257328163D+01 Z=  -9.774234441590D-07
 I=    3 X=   2.018612334534D+01 Y=   4.616448286115D-01 Z=   1.310814397614D-06
 I=    4 X=   1.276510785183D+01 Y=  -4.039076398489D-02 Z=   7.087624923431D-08
 I=    5 X=  -6.037741661010D+00 Y=   3.243257942465D+00 Z=  -1.012765725902D-06
 I=    6 X=   2.763072586700D+00 Y=   3.494671832054D+00 Z=   5.125490281924D+00
 I=    7 X=   2.763073736790D+00 Y=   3.494670182971D+00 Z=  -5.125491422066D+00
 I=    8 X=   3.239433204004D+00 Y=   6.039760639874D+00 Z=   6.008715049394D-07
 I=    9 X=   3.506916037501D+00 Y=  -2.766661092095D+00 Z=   5.118225355032D+00
 I=   10 X=   3.506916103092D+00 Y=  -2.766659640927D+00 Z=  -5.118226069091D+00
 I=   11 X=   2.692202838954D-01 Y=   1.167326022270D+01 Z=  -2.273657726785D+01
 I=   12 X=   2.692222715338D-01 Y=   1.167325945392D+01 Z=   2.273658323317D+01
 I=   13 X=   1.160976198955D+01 Y=  -2.696063696585D-01 Z=  -2.309792670176D+01
 I=   14 X=  -1.160976176850D+01 Y=   2.695955407886D-01 Z=  -2.309792666682D+01
 I=   15 X=  -2.432652843115D-08 Y=  -8.399924356832D-06 Z=  -1.333376368400D+01
 I=   16 X=  -1.500430116615D-07 Y=   4.041807225713D-07 Z=  -1.494066618475D+01
 I=   17 X=   3.362125343825D-07 Y=  -4.744040013951D-07 Z=   1.494066601203D+01
 I=   18 X=  -2.692186900329D-01 Y=  -1.167325874933D+01 Z=  -2.273658391851D+01
 I=   19 X=   1.160976205045D+01 Y=  -2.696006721130D-01 Z=   2.309792585947D+01
 I=   20 X=  -2.018612335922D+01 Y=  -4.616448088492D-01 Z=   9.075773607470D-07
 I=   21 X=  -2.692239418012D-01 Y=  -1.167326093536D+01 Z=   2.273657658117D+01
 I=   22 X=  -1.160976225357D+01 Y=   2.696115170805D-01 Z=   2.309792592207D+01
 I=   23 X=   4.812071726615D-08 Y=   8.392962996339D-06 Z=   1.333376281953D+01
 I=   24 X=   4.657552328689D-01 Y=  -2.013193299376D+01 Z=   6.721243923936D-06
 I=   25 X=  -1.276510785714D+01 Y=   4.039077173105D-02 Z=  -1.601182380710D-07
 I=   26 X=  -5.184621686923D-02 Y=  -1.275257328073D+01 Z=   5.102354425827D-07
 I=   27 X=   6.037741646845D+00 Y=  -3.243257966769D+00 Z=   1.558659886978D-06
 I=   28 X=  -2.763071992072D+00 Y=  -3.494671696970D+00 Z=  -5.125490861195D+00
 I=   29 X=  -2.763074357643D+00 Y=  -3.494670293129D+00 Z=   5.125490841829D+00
 I=   30 X=  -3.239433215507D+00 Y=  -6.039760637809D+00 Z=   6.579862836652D-07
 I=   31 X=  -3.506916179580D+00 Y=   2.766660111444D+00 Z=  -5.118225826447D+00
 I=   32 X=  -3.506915957441D+00 Y=   2.766660632250D+00 Z=   5.118225601405D+00
 I=   33 X=  -6.499369210785D+00 Y=  -3.791723567345D-02 Z=   5.070970717489D+00
 I=   34 X=   6.499369331755D+00 Y=   3.790882389352D-02 Z=   5.070970641282D+00
 I=   35 X=   6.499369115372D+00 Y=   3.791725063032D-02 Z=  -5.070970543804D+00
 I=   36 X=  -6.499369234062D+00 Y=  -3.790882493606D-02 Z=  -5.070970472932D+00
 Leave Link  701 at Sun Nov 24 22:19:02 2013, MaxMem=   33554432 cpu:       6.6
 (Enter /net/cottusp/opt/gaussian/g09revA02_amd64/g09/l702.exe)
 L702 exits ... SP integral derivatives will be done elsewhere.
 Leave Link  702 at Sun Nov 24 22:19:02 2013, MaxMem=   33554432 cpu:       0.0
 (Enter /net/cottusp/opt/gaussian/g09revA02_amd64/g09/l703.exe)
 Compute integral first derivatives, UseDBF=F ICtDFT=           0.
 Integral derivatives from FoFDir, PRISM(SPDF).
 ICntrl=      2127.
 Calling FoFJK, ICntrl=      2527 FMM=F ISym2X=0 I1Cent= 0 IOpClX= 0 NMat=1 NMatS=1 NMatT=0.
 FoFJK:  IHMeth= 1 ICntrl=  2527 DoSepK=F KAlg= 1 I1Cent= 0 FoldK=F
 FoFCou: FMM=F IPFlag=           0 FMFlag=      100000 FMFlg1=         800
         NFxFlg=           0 DoJE=F BraDBF=F KetDBF=F FulRan=T
         Omega=  0.000000  0.000000  1.000000  0.000000  0.000000 ICntrl=    2527 IOpCl=  0
         NMat0=    1 NMatS0=    1 NMatT0=    0 NMatD0=    1 NMtDS0=    0 NMtDT0=    0
         I1Cent=           0 NGrid=           0.
 Symmetry not used in FoFCou.
 FoFCou:  KetSym=F NOpSet=  1 NOpAb=1 NOp=  1.
 FoFCou:  CnvScl= 1.00D+00 Thresh= 1.00D-10
 PrismS was handed    32847419 working-precision words and  8370 shell-pairs
 LenC2 before Schwartz=        8371 after=        7913.
 FoFCou: LinMIO=F DoNuc=F BraDBF=F KetDBF=F HaveP=T PDBF=F HaveZ=T HaveW=F
         NIJTC =       6 NIJTAt=       0 NIJTCD=       0 NIJTT =       6
         IJTBeg=       1 IJTEnd=       6 KLTBeg=       1 KLTEnd=       6
         IPTBeg=       1 IPTEnd=       6 IPTBCv=       1 IPTECv=       6
         IZTBeg=       1 IZTEnd=       6 IZTBCv=       1 IZTECv=       6
         IWTBeg=       7 IWTEnd=       6 IWTBCv=       7 IWTECv=       6
         INTBeg=       1 INTEnd=       0 IFTBCv=       1 IFTECv=       6
 NCel replicated for PrismC:     1
 CoulSu:  NPrtUS=   2 ThrOK=T IAlg=1
 Enter PrismC: JobTyp=21 DoJE=F Cont=F.
 PrismC was handed    16300670 working-precision words and  7912 shell-pairs
 Enter PrismC: JobTyp=21 DoJE=F Cont=F.
 PrismC was handed    16300670 working-precision words and  7912 shell-pairs
 IPart=  1 NShTot=     9177288 NShNF=     9177288 NShFF=           0 NBatch=       60757 AvBLen=       151.0
 IPart=  0 NShTot=     9192653 NShNF=     9192653 NShFF=           0 NBatch=       60826 AvBLen=       151.1
 ReadGW:  IGet=0 IStart=           1 Next=       21831 LGW=       21830.
 Remaining memory in FofDFT       31.92 Mw
 Pruned (  99, 590) grid will be used in CalDFT.
 CkSvGd:  ISavGI=        -1 IRadAn=       5 IRASav=       5 ISavGd=        -1.
 CalDSu:  NPrtUS=   2 ThrOK=T IAlg=1
 IPart= 0 IRanGd=          0 ScrnBf=T ScrnGd=T RCrit=4.00D+00 DoMicB=T.
 CutRad = 1000.00    CtRdIn =    0.00    XCrit =  15.00   ICut = 0
 IPart= 1 IRanGd=          0 ScrnBf=T ScrnGd=T RCrit=4.00D+00 DoMicB=T.
 CutRad = 1000.00    CtRdIn =    0.00    XCrit =  15.00   ICut = 0
 Pruned (  99, 590) grid will be used in CalDFT.
 Pruned (  99, 590) grid will be used in CalDFT.
 Pruned (  99, 590) grid will be used in CalDFT.
 Pruned (  99, 590) grid will be used in CalDFT.
 Pruned (  99, 590) grid will be used in CalDFT.
 Pruned (  99, 590) grid will be used in CalDFT.
 Pruned (  99, 590) grid will be used in CalDFT.
 Pruned (  99, 590) grid will be used in CalDFT.
 Pruned (  99, 590) grid will be used in CalDFT.
 Pruned (  99, 590) grid will be used in CalDFT.
 Pruned (  99, 590) grid will be used in CalDFT.
 Pruned (  99, 590) grid will be used in CalDFT.
 Pruned (  99, 590) grid will be used in CalDFT.
 Pruned (  99, 590) grid will be used in CalDFT.
 Pruned (  99, 590) grid will be used in CalDFT.
 Pruned (  99, 590) grid will be used in CalDFT.
 Pruned (  99, 590) grid will be used in CalDFT.
 Pruned (  99, 590) grid will be used in CalDFT.
 Pruned (  99, 590) grid will be used in CalDFT.
 Pruned (  99, 590) grid will be used in CalDFT.
 Pruned (  99, 590) grid will be used in CalDFT.
 Pruned (  99, 590) grid will be used in CalDFT.
 Pruned (  99, 590) grid will be used in CalDFT.
 Pruned (  99, 590) grid will be used in CalDFT.
 Pruned (  99, 590) grid will be used in CalDFT.
 Pruned (  99, 590) grid will be used in CalDFT.
 Pruned (  99, 590) grid will be used in CalDFT.
 Pruned (  99, 590) grid will be used in CalDFT.
 Pruned (  99, 590) grid will be used in CalDFT.
 Pruned (  99, 590) grid will be used in CalDFT.
 Pruned (  99, 590) grid will be used in CalDFT.
 Defaulting to unpruned grid for atomic number  45.
 Pruned (  99, 590) grid will be used in CalDFT.
 Defaulting to unpruned grid for atomic number  45.
 Pruned (  99, 590) grid will be used in CalDFT.
 Pruned (  99, 590) grid will be used in CalDFT.
 Pruned (  99, 590) grid will be used in CalDFT.
 Pruned (  99, 590) grid will be used in CalDFT.
 Pruned (  99, 590) grid will be used in CalDFT.
 Pruned (  99, 590) grid will be used in CalDFT.
 Pruned (  99, 590) grid will be used in CalDFT.
 Pruned (  99, 590) grid will be used in CalDFT.
 Pruned (  99, 590) grid will be used in CalDFT.
 Pruned (  99, 590) grid will be used in CalDFT.
 Pruned (  99, 590) grid will be used in CalDFT.
 Pruned (  99, 590) grid will be used in CalDFT.
 Pruned (  99, 590) grid will be used in CalDFT.
 Pruned (  99, 590) grid will be used in CalDFT.
 Pruned (  99, 590) grid will be used in CalDFT.
 Pruned (  99, 590) grid will be used in CalDFT.
 Pruned (  99, 590) grid will be used in CalDFT.
 Pruned (  99, 590) grid will be used in CalDFT.
 Pruned (  99, 590) grid will be used in CalDFT.
 Pruned (  99, 590) grid will be used in CalDFT.
 Pruned (  99, 590) grid will be used in CalDFT.
 Pruned (  99, 590) grid will be used in CalDFT.
 Pruned (  99, 590) grid will be used in CalDFT.
 Pruned (  99, 590) grid will be used in CalDFT.
 Pruned (  99, 590) grid will be used in CalDFT.
 Pruned (  99, 590) grid will be used in CalDFT.
 Pruned (  99, 590) grid will be used in CalDFT.
 Pruned (  99, 590) grid will be used in CalDFT.
 Pruned (  99, 590) grid will be used in CalDFT.
 Pruned (  99, 590) grid will be used in CalDFT.
 Pruned (  99, 590) grid will be used in CalDFT.
 Pruned (  99, 590) grid will be used in CalDFT.
 Pruned (  99, 590) grid will be used in CalDFT.
 Pruned (  99, 590) grid will be used in CalDFT.
 Pruned (  99, 590) grid will be used in CalDFT.
 Pruned (  99, 590) grid will be used in CalDFT.
 Pruned (  99, 590) grid will be used in CalDFT.
 Pruned (  99, 590) grid will be used in CalDFT.
 Pruned (  99, 590) grid will be used in CalDFT.
 Pruned (  99, 590) grid will be used in CalDFT.
 IPart= 0       370443 of       457536 points in     479 batches and     2012 microbatches, Max-NSigAt=      36 Max-NSgAt2=      36
 IPart= 1       360574 of       430872 points in     443 batches and     1913 microbatches, Max-NSigAt=      36 Max-NSgAt2=      36
 Forces at end of L703
 I=    0 X=   0.000000000000D+00 Y=   0.000000000000D+00 Z=  -2.018879329491D-06
 I=    1 X=   7.294211088471D-07 Y=   0.000000000000D+00 Z=   1.452405709157D-07
 I=    2 X=  -1.287112757556D-07 Y=   7.174489624617D-08 Z=   1.650710944514D-08
 I=    3 X=   2.277974644471D-07 Y=  -3.377539527505D-07 Z=   0.000000000000D+00
 I=    4 X=   3.313718455189D-07 Y=   2.415583670798D-07 Z=   0.000000000000D+00
 I=    5 X=  -1.280743484600D-07 Y=   6.432382404498D-08 Z=   0.000000000000D+00
 I=    6 X=  -1.302515659773D-07 Y=  -9.025007985386D-08 Z=  -1.219544856212D-07
 I=    7 X=  -1.156837283744D-07 Y=  -7.694884374132D-08 Z=   9.487742946845D-08
 I=    8 X=  -8.699054454553D-08 Y=  -1.791937576101D-07 Z=   0.000000000000D+00
 I=    9 X=  -1.007906229589D-07 Y=   1.551520090182D-07 Z=  -1.879522288917D-07
 I=   10 X=  -9.883257234833D-08 Y=   1.555060635816D-07 Z=   1.836402114819D-07
 I=   11 X=  -2.633788125928D-07 Y=  -1.560201390305D-08 Z=   1.412188410654D-07
 I=   12 X=  -2.674497094346D-07 Y=   2.308408220131D-08 Z=  -2.579788436208D-07
 I=   13 X=  -1.505088409459D-07 Y=   1.371199550571D-07 Z=  -3.362182710021D-07
 I=   14 X=   1.514712586470D-07 Y=  -1.470555569538D-07 Z=  -3.369014009991D-07
 I=   15 X=   0.000000000000D+00 Y=   1.578166971227D-08 Z=   4.872404701928D-08
 I=   16 X=   0.000000000000D+00 Y=  -3.387248742820D-08 Z=  -1.857078224532D-08
 I=   17 X=   0.000000000000D+00 Y=   3.358870287354D-08 Z=   1.856620812646D-08
 I=   18 X=   2.659482896683D-07 Y=  -2.542954646856D-08 Z=   2.420254929802D-07
 I=   19 X=  -1.656243000525D-07 Y=   1.448128411075D-07 Z=   3.357515332425D-07
 I=   20 X=  -2.276884742969D-07 Y=   3.377996965481D-07 Z=   0.000000000000D+00
 I=   21 X=   2.640020954070D-07 Y=   1.797837789752D-08 Z=  -1.569630363463D-07
 I=   22 X=   1.647122100934D-07 Y=  -1.346268069802D-07 Z=   3.351208874847D-07
 I=   23 X=   0.000000000000D+00 Y=  -1.574265704361D-08 Z=  -5.091999888407D-08
 I=   24 X=  -7.294599924101D-07 Y=   0.000000000000D+00 Z=  -9.376804805387D-08
 I=   25 X=  -3.314285734746D-07 Y=  -2.415986634016D-07 Z=   0.000000000000D+00
 I=   26 X=   1.287773663053D-07 Y=  -7.176411287446D-08 Z=  -1.381167208534D-08
 I=   27 X=   1.280745767218D-07 Y=  -6.434024513169D-08 Z=   0.000000000000D+00
 I=   28 X=   1.279528052400D-07 Y=   8.779651405888D-08 Z=   1.154016047167D-07
 I=   29 X=   1.179880784186D-07 Y=   7.941915702858D-08 Z=  -1.014453623327D-07
 I=   30 X=   8.697567999150D-08 Y=   1.792028916370D-07 Z=   0.000000000000D+00
 I=   31 X=   1.000238456506D-07 Y=  -1.539616314439D-07 Z=   1.844277139895D-07
 I=   32 X=   9.960699021150D-08 Y=  -1.567023821814D-07 Z=  -1.871881885052D-07
 I=   33 X=   4.019211452544D-08 Y=   0.000000000000D+00 Z=   3.038868356953D-08
 I=   34 X=  -4.039037904136D-08 Y=   1.569408618340D-08 Z=   3.045916852074D-08
 I=   35 X=  -2.116166974986D-08 Y=   0.000000000000D+00 Z=  -3.597344200301D-08
 I=   36 X=   2.139590904449D-08 Y=  -1.571361427088D-08 Z=  -3.603723897072D-08
 Leave Link  703 at Sun Nov 24 22:20:07 2013, MaxMem=   33554432 cpu:     130.1
 (Enter /net/cottusp/opt/gaussian/g09revA02_amd64/g09/l716.exe)
 FrcOut:
 IF    =  2543 IFX   =  2783 IFXYZ =  2891
 IFFX  =  2999 IFFFX =  2999 IFLen =   240
 IFFLen=     0 IFFFLn=     0 IEDerv=  2999
 LEDerv=  5237 IFroze=  8240 ICStrt=122409
 Dipole        =-1.09254605D-09 2.99150969D-09-2.01887933D-06
 -------------------------------------------------------------------
 Center     Atomic                   Forces (Hartrees/Bohr)
 Number     Number              X              Y              Z
 -------------------------------------------------------------------
      1        6          -0.000000729   -0.000000001   -0.000000145
      2        6           0.000000129   -0.000000072   -0.000000017
      3        6          -0.000000228    0.000000338   -0.000000007
      4        6          -0.000000331   -0.000000242   -0.000000003
      5        1           0.000000128   -0.000000064    0.000000000
      6        1           0.000000130    0.000000090    0.000000122
      7        1           0.000000116    0.000000077   -0.000000095
      8        1           0.000000087    0.000000179    0.000000002
      9        1           0.000000101   -0.000000155    0.000000188
     10        1           0.000000099   -0.000000156   -0.000000184
     11        8           0.000000263    0.000000016   -0.000000141
     12        8           0.000000267   -0.000000023    0.000000258
     13        8           0.000000151   -0.000000137    0.000000336
     14        8          -0.000000151    0.000000147    0.000000337
     15        8           0.000000001   -0.000000016   -0.000000049
     16       45          -0.000000001    0.000000034    0.000000019
     17       45           0.000000000   -0.000000034   -0.000000019
     18        8          -0.000000266    0.000000025   -0.000000242
     19        8           0.000000166   -0.000000145   -0.000000336
     20        6           0.000000228   -0.000000338   -0.000000007
     21        8          -0.000000264   -0.000000018    0.000000157
     22        8          -0.000000165    0.000000135   -0.000000335
     23        8          -0.000000001    0.000000016    0.000000051
     24        6           0.000000729    0.000000001    0.000000094
     25        6           0.000000331    0.000000242   -0.000000001
     26        6          -0.000000129    0.000000072    0.000000014
     27        1          -0.000000128    0.000000064    0.000000003
     28        1          -0.000000128   -0.000000088   -0.000000115
     29        1          -0.000000118   -0.000000079    0.000000101
     30        1          -0.000000087   -0.000000179   -0.000000001
     31        1          -0.000000100    0.000000154   -0.000000184
     32        1          -0.000000100    0.000000157    0.000000187
     33        1          -0.000000040    0.000000007   -0.000000030
     34        1           0.000000040   -0.000000016   -0.000000030
     35        1           0.000000021   -0.000000007    0.000000036
     36        1          -0.000000021    0.000000016    0.000000036
 -------------------------------------------------------------------
 Cartesian Forces:  Max     0.000000729 RMS     0.000000178
 Final forces over variables, Energy=-1.28610633D+03:
  2.22691786D-08 2.66284501D-08-7.96647666D-08 8.88824937D-09
 -1.28224912D-08-9.81738090D-10-1.78532985D-08 6.59539939D-08
  6.89070205D-08 1.73321420D-08-9.04505819D-09-9.34980518D-09
 -9.36594262D-09-8.21018079D-09-1.11319501D-08-1.03837390D-08
  6.54940002D-08 1.94720357D-08 2.06344959D-08 2.05373184D-08
  7.35875922D-09-8.72157613D-09-1.35873519D-08-8.85776627D-09
 -1.43674039D-08 1.74415139D-08-7.55705377D-08 6.93175052D-08
 -1.78357103D-08 2.25329092D-08 1.88200292D-08 1.87280374D-08
  2.22679135D-08 1.73337897D-08-9.11640365D-09-9.29145833D-09
  8.89078180D-09-1.18931418D-08-1.91382241D-09-1.07522755D-08
  1.67585344D-08-7.30153656D-09 3.07941606D-08-1.25573270D-08
 -1.31990433D-08-8.10914026D-09-8.16107455D-09 1.18691362D-08
  2.65250920D-09 2.35546793D-09-5.43262535D-09 1.09558074D-09
 -2.89355826D-08-2.88060827D-08 1.83988355D-08 1.81190350D-08
  2.16502748D-08 8.25257173D-09 1.50448663D-08-1.06428646D-08
 -1.03636479D-08 2.04777276D-08 2.04914802D-08-4.09692079D-08
  3.12868488D-07-3.15165947D-07 6.35533143D-09-1.51119314D-08
 -1.29936129D-08 1.33744043D-08-3.12775641D-07-1.32155435D-08
  1.28347521D-08 3.15599713D-07 1.01543727D-08-1.39777281D-09
 -1.01746289D-09 3.17412007D-07-3.14526151D-07 9.77349447D-09
  1.35199654D-08-1.47312147D-08 1.40564427D-08-3.16917035D-07
 -1.38962181D-08 3.14675691D-07 5.97518309D-09-1.36801899D-08
  1.48220684D-08-1.03300820D-08-5.40426629D-09 3.72372254D-09
  1.25585134D-09 8.47242818D-09-1.06344689D-08 2.08215239D-08
  2.08254209D-08-4.16469449D-08-7.29903539D-09 1.33029792D-08
 -7.29919593D-09 1.09920962D-09-2.88952102D-08-2.88442967D-08
  1.84041998D-08 1.81096478D-08 2.16484753D-08 3.07937393D-08
 -1.27661114D-08-1.29895585D-08-8.23815077D-09-8.03254503D-09
  1.18693084D-08-3.24966100D-08-3.11624986D-08-3.33804923D-08
  3.16845321D-08 3.30186435D-08 3.08006498D-08 7.98855656D-08
  1.02626496D-08-8.00496586D-08-1.01036293D-08-9.94342555D-09
 -4.21781180D-09-1.54046628D-08 1.07948645D-08 1.65204783D-08
  5.33362721D-09-1.68156907D-08-3.92479054D-08 1.20669358D-08
  3.44955919D-08-9.51955762D-09 1.67656282D-08-5.15755030D-09
 -4.77531266D-09-9.24489624D-09 4.68224046D-09 9.44457362D-09
 -1.80652818D-08 4.30454333D-09 9.26058420D-09-2.30588241D-09
  1.27763720D-08 2.15364346D-08 1.42102717D-08 2.27761762D-08
  2.52094878D-08 1.64494252D-08 6.25053700D-09-3.66296821D-08
 -1.41818932D-08 1.54437065D-07-1.58490758D-07-1.61159467D-07
  1.54601510D-07 1.52559886D-07-1.60367938D-07-1.63036647D-07
  1.52724330D-07 1.51641567D-07-1.65782386D-07 1.51464006D-07
 -1.63364140D-07 1.55703145D-07-1.61720808D-07 1.55525584D-07
 -1.59302562D-07-2.16850029D-12-2.13333719D-09 2.12960134D-09
 -1.56734818D-12 1.89515714D-10-3.17121916D-07 1.79212053D-12
 -3.14938875D-07 3.13351043D-07-3.96038918D-09 3.13163319D-07
 -1.77734776D-09 3.15531237D-07-1.78019522D-09 3.15343513D-07
  4.02846206D-10 3.96247573D-12-3.17307470D-07-1.83761118D-10
 -3.15124428D-07 1.73399730D-08-8.80380060D-09-4.29461515D-09
 -4.67685280D-09-1.51464135D-07-1.55525486D-07 1.61584819D-07
  1.57523468D-07 1.64000202D-07 1.59938851D-07-1.51639646D-07
 -1.55700997D-07-2.44395497D-09-1.23130124D-08-1.82099636D-08
 -2.10725058D-08-2.91611874D-08 4.78302359D-09-1.74918059D-08
  1.01596182D-08 5.16072072D-09-9.64569748D-09-1.74012366D-08
  6.11070033D-09-8.64174326D-09-1.54607378D-07-1.52730374D-07
  1.62937867D-07 1.64814870D-07-1.54440512D-07-1.52563509D-07
  1.60266342D-07 1.62143346D-07 1.01073715D-08 8.00114696D-08
  3.71155534D-08 1.46973292D-08-1.07653723D-08-1.65241554D-08
 -5.33647949D-09 9.97469958D-09 4.21591648D-09 1.54035924D-08
 -1.02640485D-08-7.99261750D-08-3.18980583D-08-3.29482543D-08
 -3.07309421D-08 3.22817850D-08 3.12315890D-08 3.34489012D-08
 Leave Link  716 at Sun Nov 24 22:20:08 2013, MaxMem=   33554432 cpu:       0.1
 (Enter /net/cottusp/opt/gaussian/g09revA02_amd64/g09/l103.exe)

 GradGradGradGradGradGradGradGradGradGradGradGradGradGradGradGradGradGrad
 Berny optimization.
 Using GEDIIS/GDIIS optimizer.
 Internal  Forces:  Max     0.000000302 RMS     0.000000075
 Search for a local minimum.
 Step number   3 out of a maximum of  216
 All quantities printed in internal units (Hartrees-Bohrs-Radians)
 RMS Force = .74712D-07 SwitMx=.10000D-02 MixMth= 2
 Mixed Optimization -- En-DIIS/RFO-DIIS
 Swaping is turned off.
 Update second derivatives using D2CorX and points    1    2    3
 DE=  3.18D-12 DEPred=-5.23D-11 R=-6.08D-02
 Trust test=-6.08D-02 RLast= 7.81D-05 DXMaxT set to 1.50D-01
     Eigenvalues ---    0.00225   0.00230   0.00230   0.00230   0.00397
     Eigenvalues ---    0.00511   0.00511   0.00515   0.00515   0.01127
     Eigenvalues ---    0.01262   0.01264   0.01315   0.01734   0.01738
     Eigenvalues ---    0.01900   0.02251   0.02254   0.02403   0.02626
     Eigenvalues ---    0.02985   0.05176   0.05176   0.07206   0.07207
     Eigenvalues ---    0.07209   0.07221   0.07421   0.07421   0.07426
     Eigenvalues ---    0.07426   0.09377   0.09378   0.10019   0.10020
     Eigenvalues ---    0.11449   0.13186   0.13652   0.13672   0.14817
     Eigenvalues ---    0.14817   0.14838   0.14839   0.14898   0.15297
     Eigenvalues ---    0.15482   0.15994   0.16000   0.16000   0.16000
     Eigenvalues ---    0.16000   0.16000   0.16000   0.16000   0.16000
     Eigenvalues ---    0.16000   0.16000   0.16000   0.16000   0.16000
     Eigenvalues ---    0.16031   0.16225   0.17475   0.17489   0.18567
     Eigenvalues ---    0.18572   0.24195   0.24303   0.24307   0.24501
     Eigenvalues ---    0.24997   0.24997   0.24997   0.25000   0.30438
     Eigenvalues ---    0.30460   0.30468   0.30555   0.33001   0.33002
     Eigenvalues ---    0.33005   0.33222   0.33499   0.33499   0.33499
     Eigenvalues ---    0.33500   0.33500   0.33500   0.33500   0.36618
     Eigenvalues ---    0.51079   0.51079   0.51080   0.51081   0.56741
     Eigenvalues ---    0.56921   0.57345   0.58894   0.62151   0.62194
     Eigenvalues ---    0.62249   0.623651000.000001000.000001000.00000
     Eigenvalues --- 1000.000001000.000001000.000001000.000001000.00000
     Eigenvalues --- 1000.000001000.000001000.000001000.000001000.00000
     Eigenvalues --- 1000.000001000.000001000.000001000.000001000.00000
     Eigenvalues --- 1000.000001000.000001000.000001000.000001000.00000
     Eigenvalues --- 1000.000001000.000001000.000001000.000001000.00000
     Eigenvalues --- 1000.000001000.000001000.000001000.000001000.00000
     Eigenvalues --- 1000.000001000.000001000.000001000.000001000.00000
     Eigenvalues --- 1000.000001000.000001000.000001000.000001000.00000
     Eigenvalues --- 1000.000001000.000001000.000001000.000001000.00000
     Eigenvalues --- 1000.000001000.000001000.000001000.000001000.00000
     Eigenvalues --- 1000.000001000.000001000.000001000.000001000.00000
     Eigenvalues --- 1000.000001000.000001000.000001000.000001000.00000
     Eigenvalues --- 1000.000001000.000001000.000001000.000001000.00000
     Eigenvalues --- 1000.000001000.000001000.000001000.000001000.00000
     Eigenvalues --- 1000.000001000.000001000.000001000.000001000.00000
     Eigenvalues --- 1000.000001000.000001000.000001000.000001000.00000
     Eigenvalues --- 1000.000001000.000001000.000001000.000001000.00000
     Eigenvalues --- 1000.000001000.000001000.000001000.000001000.00000
     Eigenvalues --- 1000.000001000.000001000.000001000.000001000.00000
     Eigenvalues --- 1000.000001000.000001000.000001000.000001000.00000
     Eigenvalues --- 1000.000001000.000001000.000001000.000001000.00000
     Eigenvalues --- 1000.000001000.000001000.000001000.000001000.00000
     Eigenvalues --- 1000.000001000.000001000.000001000.000001000.00000
     Eigenvalues --- 1000.000001000.000001000.000001000.000001000.00000
     Eigenvalues --- 1000.000001000.000001000.000001000.000001000.00000
     Eigenvalues --- 1000.000001000.000001000.000001000.000001000.00000
     Eigenvalues --- 1000.000001000.000001000.000001000.000001000.00000
 En-DIIS/RFO-DIIS IScMMF=        0 using points:     3    2    1
 RFO step:  Lambda= 0.00000000D+00.
 DIIS coeffs:      0.64814      1.04005     -0.68819
 Iteration  1 RMS(Cart)=  0.00000129 RMS(Int)=  0.00000000
 Iteration  2 RMS(Cart)=  0.00000000 RMS(Int)=  0.00000000
 Variable       Old X    -DE/DX   Delta X   Delta X   Delta X     New X
                                  (DIIS)     (GDIIS)  (Total)
    R1        2.87099   0.00000   0.00000   0.00000   0.00000   2.87099
    R2        2.48369   0.00000   0.00000   0.00000   0.00000   2.48369
    R3        2.48368   0.00000   0.00000   0.00000   0.00000   2.48369
    R4        2.09050   0.00000   0.00000   0.00000   0.00000   2.09050
    R5        2.08184   0.00000   0.00000   0.00000   0.00000   2.08185
    R6        2.08184   0.00000   0.00000   0.00000   0.00000   2.08185
    R7        2.87039   0.00000   0.00000   0.00000   0.00000   2.87039
    R8        2.48397   0.00000   0.00000   0.00000   0.00000   2.48397
    R9        2.48397   0.00000   0.00000   0.00000   0.00000   2.48397
   R10        2.09048   0.00000   0.00000   0.00000   0.00000   2.09048
   R11        2.08183   0.00000   0.00000   0.00000   0.00000   2.08183
   R12        2.08183   0.00000   0.00000   0.00000   0.00000   2.08183
   R13        3.92528   0.00000   0.00000   0.00000   0.00000   3.92528
   R14        3.92528   0.00000   0.00000   0.00000   0.00000   3.92528
   R15        3.92426   0.00000   0.00000   0.00000   0.00000   3.92426
   R16        3.92426   0.00000   0.00000   0.00000   0.00000   3.92426
   R17        2.48397   0.00000   0.00000   0.00000   0.00000   2.48397
   R18        4.29929   0.00000   0.00000   0.00000   0.00000   4.29929
   R19        1.85491   0.00000   0.00000   0.00000   0.00000   1.85491
   R20        1.85491   0.00000   0.00000   0.00000   0.00000   1.85491
   R21        4.63025   0.00000   0.00000   0.00000   0.00000   4.63025
   R22        3.92528   0.00000   0.00000   0.00000   0.00000   3.92528
   R23        3.92426   0.00000   0.00000   0.00000   0.00000   3.92426
   R24        3.92528   0.00000   0.00000   0.00000   0.00000   3.92528
   R25        3.92426   0.00000   0.00000   0.00000   0.00000   3.92426
   R26        4.29929   0.00000   0.00000   0.00000   0.00000   4.29929
   R27        2.48368   0.00000   0.00000   0.00000   0.00000   2.48369
   R28        2.48397   0.00000   0.00000   0.00000   0.00000   2.48397
   R29        2.87039   0.00000   0.00000   0.00000   0.00000   2.87039
   R30        2.48369   0.00000   0.00000   0.00000   0.00000   2.48369
   R31        1.85491   0.00000   0.00000   0.00000   0.00000   1.85491
   R32        1.85491   0.00000   0.00000   0.00000   0.00000   1.85491
   R33        2.87099   0.00000   0.00000   0.00000   0.00000   2.87099
   R34        2.09048   0.00000   0.00000   0.00000   0.00000   2.09048
   R35        2.08183   0.00000   0.00000   0.00000   0.00000   2.08183
   R36        2.08183   0.00000   0.00000   0.00000   0.00000   2.08183
   R37        2.09050   0.00000   0.00000   0.00000   0.00000   2.09050
   R38        2.08184   0.00000   0.00000   0.00000   0.00000   2.08185
   R39        2.08184   0.00000   0.00000   0.00000   0.00000   2.08185
    A1        2.04744   0.00000   0.00000   0.00000   0.00000   2.04744
    A2        2.04744   0.00000   0.00000   0.00000   0.00000   2.04744
    A3        2.18810   0.00000   0.00000   0.00000   0.00000   2.18810
    A4        1.90863   0.00000   0.00000   0.00000   0.00000   1.90863
    A5        1.92162   0.00000   0.00000   0.00000   0.00000   1.92162
    A6        1.92162   0.00000   0.00000   0.00000   0.00000   1.92162
    A7        1.88966   0.00000   0.00000   0.00000   0.00000   1.88966
    A8        1.88966   0.00000   0.00000   0.00000   0.00000   1.88966
    A9        1.93195   0.00000   0.00000   0.00000   0.00000   1.93195
   A10        2.04856   0.00000   0.00000   0.00000   0.00000   2.04856
   A11        2.04856   0.00000   0.00000   0.00000   0.00000   2.04856
   A12        2.18585   0.00000   0.00000   0.00000   0.00000   2.18585
   A13        1.90887   0.00000   0.00000   0.00000   0.00000   1.90887
   A14        1.92220   0.00000   0.00000   0.00000   0.00000   1.92220
   A15        1.92220   0.00000   0.00000   0.00000   0.00000   1.92220
   A16        1.88994   0.00000   0.00000   0.00000   0.00000   1.88994
   A17        1.88994   0.00000   0.00000   0.00000   0.00000   1.88994
   A18        1.93001   0.00000   0.00000   0.00000   0.00000   1.93001
   A19        2.07510   0.00000   0.00000   0.00000   0.00000   2.07510
   A20        2.07510   0.00000   0.00000   0.00000   0.00000   2.07510
   A21        2.07650   0.00000   0.00000   0.00000   0.00000   2.07650
   A22        2.07650   0.00000   0.00000   0.00000   0.00000   2.07650
   A23        2.14985   0.00000   0.00000   0.00000   0.00000   2.14985
   A24        2.14985   0.00000   0.00000   0.00000   0.00000   2.14985
   A25        1.98349   0.00000   0.00000   0.00000   0.00000   1.98349
   A26        1.56989   0.00000   0.00000   0.00000   0.00000   1.56989
   A27        1.57016   0.00000   0.00000   0.00000   0.00000   1.57016
   A28        1.59841   0.00000   0.00000   0.00000   0.00000   1.59841
   A29        1.54318   0.00000   0.00000   0.00000   0.00000   1.54318
   A30        1.59868   0.00000   0.00000   0.00000   0.00000   1.59868
   A31        1.54291   0.00000   0.00000   0.00000   0.00000   1.54291
   A32        1.57016   0.00000   0.00000   0.00000   0.00000   1.57016
   A33        1.59868   0.00000   0.00000   0.00000   0.00000   1.59868
   A34        1.54291   0.00000   0.00000   0.00000   0.00000   1.54291
   A35        1.56989   0.00000   0.00000   0.00000   0.00000   1.56989
   A36        1.59841   0.00000   0.00000   0.00000   0.00000   1.59841
   A37        1.54318   0.00000   0.00000   0.00000   0.00000   1.54318
   A38        1.54318   0.00000   0.00000   0.00000   0.00000   1.54318
   A39        1.56989   0.00000   0.00000   0.00000   0.00000   1.56989
   A40        1.57016   0.00000   0.00000   0.00000   0.00000   1.57016
   A41        1.59841   0.00000   0.00000   0.00000   0.00000   1.59841
   A42        1.54291   0.00000   0.00000   0.00000   0.00000   1.54291
   A43        1.54318   0.00000   0.00000   0.00000   0.00000   1.54318
   A44        1.54291   0.00000   0.00000   0.00000   0.00000   1.54291
   A45        1.57016   0.00000   0.00000   0.00000   0.00000   1.57016
   A46        1.59868   0.00000   0.00000   0.00000   0.00000   1.59868
   A47        1.56989   0.00000   0.00000   0.00000   0.00000   1.56989
   A48        1.59841   0.00000   0.00000   0.00000   0.00000   1.59841
   A49        1.59868   0.00000   0.00000   0.00000   0.00000   1.59868
   A50        2.07510   0.00000   0.00000   0.00000   0.00000   2.07510
   A51        2.07650   0.00000   0.00000   0.00000   0.00000   2.07650
   A52        2.18585   0.00000   0.00000   0.00000   0.00000   2.18585
   A53        2.04856   0.00000   0.00000   0.00000   0.00000   2.04856
   A54        2.04856   0.00000   0.00000   0.00000   0.00000   2.04856
   A55        2.07510   0.00000   0.00000   0.00000   0.00000   2.07510
   A56        2.07650   0.00000   0.00000   0.00000   0.00000   2.07650
   A57        2.14985   0.00000   0.00000   0.00000   0.00000   2.14985
   A58        2.14985   0.00000   0.00000   0.00000   0.00000   2.14985
   A59        1.98349   0.00000   0.00000   0.00000   0.00000   1.98349
   A60        2.18810   0.00000   0.00000   0.00000   0.00000   2.18810
   A61        2.04744   0.00000   0.00000   0.00000   0.00000   2.04744
   A62        2.04744   0.00000   0.00000   0.00000   0.00000   2.04744
   A63        1.90887   0.00000   0.00000   0.00000   0.00000   1.90887
   A64        1.92220   0.00000   0.00000   0.00000   0.00000   1.92220
   A65        1.92220   0.00000   0.00000   0.00000   0.00000   1.92220
   A66        1.88994   0.00000   0.00000   0.00000   0.00000   1.88994
   A67        1.88994   0.00000   0.00000   0.00000   0.00000   1.88994
   A68        1.93001   0.00000   0.00000   0.00000   0.00000   1.93001
   A69        1.90863   0.00000   0.00000   0.00000   0.00000   1.90863
   A70        1.92162   0.00000   0.00000   0.00000   0.00000   1.92162
   A71        1.92162   0.00000   0.00000   0.00000   0.00000   1.92162
   A72        1.88966   0.00000   0.00000   0.00000   0.00000   1.88966
   A73        1.88966   0.00000   0.00000   0.00000   0.00000   1.88966
   A74        1.93195   0.00000   0.00000   0.00000   0.00000   1.93195
    D1        1.56036   0.00000   0.00000   0.00000   0.00000   1.56036
    D2       -2.64866   0.00000   0.00000   0.00000   0.00000  -2.64865
    D3       -0.51382   0.00000   0.00000   0.00000   0.00000  -0.51381
    D4       -1.56036   0.00000   0.00000   0.00000   0.00000  -1.56036
    D5        0.51382   0.00000   0.00000   0.00000   0.00000   0.51381
    D6        2.64866   0.00000   0.00000   0.00000   0.00000   2.64865
    D7       -3.10254   0.00000   0.00000   0.00000   0.00000  -3.10255
    D8        0.01630   0.00000   0.00000   0.00000   0.00000   0.01630
    D9        3.10254   0.00000   0.00000   0.00000   0.00000   3.10255
   D10       -0.01630   0.00000   0.00000   0.00000   0.00000  -0.01630
   D11        1.56016   0.00000   0.00000   0.00000   0.00000   1.56016
   D12       -2.64802   0.00000   0.00000   0.00000   0.00000  -2.64802
   D13       -0.51485   0.00000   0.00000   0.00000   0.00000  -0.51485
   D14       -1.56016   0.00000   0.00000   0.00000   0.00000  -1.56016
   D15        0.51485   0.00000   0.00000   0.00000   0.00000   0.51485
   D16        2.64802   0.00000   0.00000   0.00000   0.00000   2.64802
   D17       -3.10195   0.00000   0.00000   0.00000   0.00000  -3.10196
   D18        0.01650   0.00000   0.00000   0.00000   0.00000   0.01650
   D19        3.10195   0.00000   0.00000   0.00000   0.00000   3.10196
   D20       -0.01650   0.00000   0.00000   0.00000   0.00000  -0.01650
   D21       -1.55041   0.00000   0.00000   0.00000   0.00000  -1.55041
   D22        1.53543   0.00000   0.00000   0.00000   0.00000   1.53543
   D23        3.13411   0.00000   0.00000   0.00000   0.00000   3.13411
   D24       -0.00748   0.00000   0.00000   0.00000   0.00000  -0.00748
   D25       -0.01474   0.00000   0.00000   0.00000   0.00000  -0.01475
   D26        0.00748   0.00000   0.00000   0.00000   0.00000   0.00748
   D27        1.55041   0.00000   0.00000   0.00000   0.00000   1.55041
   D28       -1.53543   0.00000   0.00000   0.00000   0.00000  -1.53543
   D29       -3.13411   0.00000   0.00000   0.00000   0.00000  -3.13411
   D30        0.01475   0.00000   0.00000   0.00000   0.00000   0.01475
   D31        1.53560   0.00000   0.00000   0.00000   0.00000   1.53560
   D32        3.13400   0.00000   0.00000   0.00000   0.00000   3.13400
   D33       -0.00759   0.00000   0.00000   0.00000   0.00000  -0.00759
   D34       -1.55078   0.00000   0.00000   0.00000   0.00000  -1.55078
   D35       -1.55078   0.00000   0.00000   0.00000   0.00000  -1.55078
   D36        3.13400   0.00000   0.00000   0.00000   0.00000   3.13400
   D37       -0.00759   0.00000   0.00000   0.00000   0.00000  -0.00759
   D38        1.53560   0.00000   0.00000   0.00000   0.00000   1.53560
   D39        0.01650   0.00000   0.00000   0.00000   0.00000   0.01650
   D40       -3.10195   0.00000   0.00000   0.00000   0.00000  -3.10196
   D41        1.56501   0.00000   0.00000   0.00000   0.00000   1.56501
   D42       -0.00565   0.00000   0.00000   0.00000   0.00000  -0.00565
   D43        3.13594   0.00000   0.00000   0.00000   0.00000   3.13594
   D44       -1.57659   0.00000   0.00000   0.00000   0.00000  -1.57659
   D45       -1.57658   0.00000   0.00000   0.00000   0.00000  -1.57658
   D46        3.13594   0.00000   0.00000   0.00000   0.00000   3.13594
   D47       -0.00565   0.00000   0.00000   0.00000   0.00000  -0.00565
   D48        1.56501   0.00000   0.00000   0.00000   0.00000   1.56501
   D49        1.56501   0.00000   0.00000   0.00000   0.00000   1.56501
   D50       -0.00565   0.00000   0.00000   0.00000   0.00000  -0.00565
   D51       -1.57659   0.00000   0.00000   0.00000   0.00000  -1.57659
   D52        3.13594   0.00000   0.00000   0.00000   0.00000   3.13594
   D53       -1.57658   0.00000   0.00000   0.00000   0.00000  -1.57658
   D54        3.13594   0.00000   0.00000   0.00000   0.00000   3.13594
   D55        1.56501   0.00000   0.00000   0.00000   0.00000   1.56501
   D56       -0.00565   0.00000   0.00000   0.00000   0.00000  -0.00565
   D57        3.14159   0.00000   0.00000   0.00000   0.00000   3.14159
   D58        0.00000   0.00000   0.00000   0.00000   0.00000   0.00000
   D59        0.00000   0.00000   0.00000   0.00000   0.00000   0.00000
   D60       -3.14159   0.00000   0.00000   0.00000   0.00000   3.14159
   D61        0.00000   0.00000   0.00000   0.00000   0.00000   0.00000
   D62       -1.57066   0.00000   0.00000   0.00000   0.00000  -1.57066
   D63        3.14159   0.00000   0.00000   0.00000   0.00000   3.14159
   D64        1.57093   0.00000   0.00000   0.00000   0.00000   1.57093
   D65        1.57066   0.00000   0.00000   0.00000   0.00000   1.57066
   D66        0.00000   0.00000   0.00000   0.00000   0.00000   0.00000
   D67       -1.57093   0.00000   0.00000   0.00000   0.00000  -1.57093
   D68        3.14159   0.00000   0.00000   0.00000   0.00000   3.14159
   D69       -1.57093   0.00000   0.00000   0.00000   0.00000  -1.57093
   D70        3.14159   0.00000   0.00000   0.00000   0.00000   3.14159
   D71        1.57066   0.00000   0.00000   0.00000   0.00000   1.57066
   D72        0.00000   0.00000   0.00000   0.00000   0.00000   0.00000
   D73        3.14159   0.00000   0.00000   0.00000   0.00000   3.14159
   D74        1.57093   0.00000   0.00000   0.00000   0.00000   1.57093
   D75        0.00000   0.00000   0.00000   0.00000   0.00000   0.00000
   D76       -1.57066   0.00000   0.00000   0.00000   0.00000  -1.57066
   D77        1.53543   0.00000   0.00000   0.00000   0.00000   1.53543
   D78       -1.55041   0.00000   0.00000   0.00000   0.00000  -1.55041
   D79        3.13411   0.00000   0.00000   0.00000   0.00000   3.13411
   D80       -0.00748   0.00000   0.00000   0.00000   0.00000  -0.00748
   D81        1.57659   0.00000   0.00000   0.00000   0.00000   1.57659
   D82       -1.56501   0.00000   0.00000   0.00000   0.00000  -1.56501
   D83       -3.13594   0.00000   0.00000   0.00000   0.00000  -3.13594
   D84        0.00565   0.00000   0.00000   0.00000   0.00000   0.00565
   D85        0.00565   0.00000   0.00000   0.00000   0.00000   0.00565
   D86       -3.13594   0.00000   0.00000   0.00000   0.00000  -3.13594
   D87       -1.56501   0.00000   0.00000   0.00000   0.00000  -1.56501
   D88        1.57658   0.00000   0.00000   0.00000   0.00000   1.57658
   D89       -1.53560   0.00000   0.00000   0.00000   0.00000  -1.53560
   D90        0.00759   0.00000   0.00000   0.00000   0.00000   0.00759
   D91        1.55078   0.00000   0.00000   0.00000   0.00000   1.55078
   D92       -3.13400   0.00000   0.00000   0.00000   0.00000  -3.13400
   D93        0.01496   0.00000   0.00000   0.00000   0.00000   0.01496
   D94        0.00748   0.00000   0.00000   0.00000   0.00000   0.00748
   D95       -1.53543   0.00000   0.00000   0.00000   0.00000  -1.53543
   D96        1.55041   0.00000   0.00000   0.00000   0.00000   1.55041
   D97       -3.13411   0.00000   0.00000   0.00000   0.00000  -3.13411
   D98        1.55078   0.00000   0.00000   0.00000   0.00000   1.55078
   D99        0.00759   0.00000   0.00000   0.00000   0.00000   0.00759
   D100      -1.53560   0.00000   0.00000   0.00000   0.00000  -1.53560
   D101      -3.13400   0.00000   0.00000   0.00000   0.00000  -3.13400
   D102       1.57659   0.00000   0.00000   0.00000   0.00000   1.57659
   D103      -1.56501   0.00000   0.00000   0.00000   0.00000  -1.56501
   D104      -3.13594   0.00000   0.00000   0.00000   0.00000  -3.13594
   D105       0.00565   0.00000   0.00000   0.00000   0.00000   0.00565
   D106      -1.56501   0.00000   0.00000   0.00000   0.00000  -1.56501
   D107       1.57658   0.00000   0.00000   0.00000   0.00000   1.57658
   D108       0.00565   0.00000   0.00000   0.00000   0.00000   0.00565
   D109      -3.13594   0.00000   0.00000   0.00000   0.00000  -3.13594
   D110       0.01630   0.00000   0.00000   0.00000   0.00000   0.01630
   D111      -3.10254   0.00000   0.00000   0.00000   0.00000  -3.10255
   D112      -0.01650   0.00000   0.00000   0.00000   0.00000  -0.01650
   D113       3.10195   0.00000   0.00000   0.00000   0.00000   3.10196
   D114       1.56016   0.00000   0.00000   0.00000   0.00000   1.56016
   D115      -0.51485   0.00000   0.00000   0.00000   0.00000  -0.51485
   D116      -2.64802   0.00000   0.00000   0.00000   0.00000  -2.64802
   D117      -1.56016   0.00000   0.00000   0.00000   0.00000  -1.56016
   D118       2.64802   0.00000   0.00000   0.00000   0.00000   2.64802
   D119       0.51485   0.00000   0.00000   0.00000   0.00000   0.51485
   D120      -0.01630   0.00000   0.00000   0.00000   0.00000  -0.01630
   D121       3.10254   0.00000   0.00000   0.00000   0.00000   3.10255
   D122       1.56036   0.00000   0.00000   0.00000   0.00000   1.56036
   D123      -0.51382   0.00000   0.00000   0.00000   0.00000  -0.51381
   D124      -2.64866   0.00000   0.00000   0.00000   0.00000  -2.64865
   D125      -1.56036   0.00000   0.00000   0.00000   0.00000  -1.56036
   D126       2.64866   0.00000   0.00000   0.00000   0.00000   2.64865
   D127       0.51382   0.00000   0.00000   0.00000   0.00000   0.51381
         Item               Value     Threshold  Converged?
 Maximum Force            0.000000     0.000002     YES
 RMS     Force            0.000000     0.000001     YES
 Maximum Displacement     0.000008     0.000006     NO 
 RMS     Displacement     0.000001     0.000004     YES
 Predicted change in Energy=-8.035252D-12
 GradGradGradGradGradGradGradGradGradGradGradGradGradGradGradGradGradGrad

 Leave Link  103 at Sun Nov 24 22:20:09 2013, MaxMem=   33554432 cpu:       0.5
 (Enter /net/cottusp/opt/gaussian/g09revA02_amd64/g09/l202.exe)
                          Input orientation:                          
 ---------------------------------------------------------------------
 Center     Atomic      Atomic             Coordinates (Angstroms)
 Number     Number       Type             X           Y           Z
 ---------------------------------------------------------------------
      1          6           0       -0.008636    2.679440    0.000000
      2          6           0       -0.061034    4.197798    0.000000
      3          6           0        2.680261    0.009119    0.000000
      4          6           0        4.198269    0.062469    0.000000
      5          1           0       -1.116771    4.528241    0.000000
      6          1           0        0.424670    4.593394    0.906234
      7          1           0        0.424670    4.593394   -0.906235
      8          1           0        4.528290    1.118331    0.000000
      9          1           0        4.594794   -0.423607    0.905618
     10          1           0        4.594794   -0.423606   -0.905619
     11          8           0       -0.000019    2.076379   -1.167756
     12          8           0       -0.000019    2.076379    1.167755
     13          8           0        2.075820    0.000300   -1.167208
     14          8           0       -2.075820   -0.000301   -1.167207
     15          8           0        0.000000    0.000000   -3.500196
     16         45           0        0.000000    0.000000   -1.225110
     17         45           0        0.000000    0.000000    1.225110
     18          8           0        0.000019   -2.076379   -1.167755
     19          8           0        2.075820    0.000300    1.167207
     20          6           0       -2.680261   -0.009119    0.000000
     21          8           0        0.000019   -2.076379    1.167756
     22          8           0       -2.075820   -0.000300    1.167208
     23          8           0        0.000000    0.000000    3.500196
     24          6           0        0.008636   -2.679440    0.000000
     25          6           0       -4.198269   -0.062469    0.000000
     26          6           0        0.061034   -4.197798    0.000000
     27          1           0        1.116771   -4.528241    0.000001
     28          1           0       -0.424670   -4.593394   -0.906234
     29          1           0       -0.424670   -4.593394    0.906235
     30          1           0       -4.528290   -1.118331    0.000000
     31          1           0       -4.594794    0.423607   -0.905618
     32          1           0       -4.594794    0.423607    0.905619
     33          1           0       -0.821551   -0.004764    4.037344
     34          1           0        0.821551    0.004762    4.037344
     35          1           0        0.821551    0.004764   -4.037344
     36          1           0       -0.821551   -0.004762   -4.037344
 ---------------------------------------------------------------------
                    Distance matrix (angstroms):
                    1          2          3          4          5
     1  C    0.000000
     2  C    1.519262   0.000000
     3  C    3.789563   5.005970   0.000000
     4  C    4.954451   5.936548   1.518945   0.000000
     5  H    2.155465   1.106243   5.902535   6.942101   0.000000
     6  H    2.161535   1.101665   5.188886   5.965785   1.789287
     7  H    2.161535   1.101665   5.188885   5.965785   1.789287
     8  H    4.797995   5.526754   2.155356   1.106235   6.595013
     9  H    5.624999   6.622255   2.161674   1.101656   7.613338
    10  H    5.624999   6.622255   2.161674   1.101656   7.613338
    11  O    1.314310   2.422353   3.580659   4.800532   2.936395
    12  O    1.314310   2.422353   3.580659   4.800532   2.936395
    13  O    3.589585   4.852577   1.314458   2.423021   5.661913
    14  O    3.580032   4.800601   4.897221   6.382046   4.773870
    15  O    4.408043   5.465949   4.408543   5.466328   5.831253
    16  Rh   2.946247   4.373343   2.946995   4.373815   4.822140
    17  Rh   2.946246   4.373343   2.946995   4.373815   4.822140
    18  O    4.897095   6.382216   3.591191   4.854238   6.799403
    19  O    3.589585   4.852577   1.314458   2.423021   5.661913
    20  C    3.790241   4.955653   5.360554   6.878903   4.799181
    21  O    4.897095   6.382216   3.591191   4.854238   6.799403
    22  O    3.580032   4.800600   4.897221   6.382046   4.773870
    23  O    4.408043   5.465950   4.408543   5.466328   5.831253
    24  C    5.358908   6.877591   3.790241   5.007104   7.295012
    25  C    5.007104   5.938569   6.878903   8.397468   5.529037
    26  C    6.877591   8.396483   4.955653   5.938569   8.805168
    27  H    7.295012   8.805168   4.799181   5.529037   9.327839
    28  H    7.340876   8.845256   5.625387   6.623435   9.192632
    29  H    7.340876   8.845256   5.625387   6.623435   9.192632
    30  H    5.903417   6.943889   7.296187   8.806084   6.597138
    31  H    5.190547   5.968220   7.342913   8.846950   5.455714
    32  H    5.190547   5.968220   7.342913   8.846950   5.455714
    33  H    4.915885   5.877080   5.344439   6.442302   6.077454
    34  H    4.913579   5.887330   4.444657   5.263621   6.365462
    35  H    4.913578   5.887328   4.444657   5.263621   6.365460
    36  H    4.915885   5.877078   5.344439   6.442302   6.077452
                    6          7          8          9         10
     6  H    0.000000
     7  H    1.812469   0.000000
     8  H    5.453166   5.453166   0.000000
     9  H    6.523820   6.770749   1.789452   0.000000
    10  H    6.770749   6.523820   1.789452   1.811237   0.000000
    11  O    3.288945   2.565954   4.773583   5.626821   5.237457
    12  O    2.565954   3.288945   4.773583   5.237457   5.626821
    13  O    5.303015   4.887833   2.937171   3.289610   2.567753
    14  O    5.626157   5.236658   6.799116   6.998063   6.689149
    15  O    6.379360   5.292281   5.831590   6.379873   5.293714
    16  Rh   5.081559   4.623991   4.822548   5.082478   4.625327
    17  Rh   4.623991   5.081559   4.822548   4.625327   5.082478
    18  O    6.997688   6.688392   5.663485   5.304950   4.890023
    19  O    4.887833   5.303015   2.937171   2.567754   3.289610
    20  C    5.625387   5.625387   7.296187   7.342913   7.342913
    21  O    6.688392   6.997688   5.663484   4.890023   5.304950
    22  O    5.236658   5.626157   6.799116   6.689149   6.998063
    23  O    5.292282   6.379361   5.831590   5.293714   6.379873
    24  C    7.340876   7.340876   5.903417   5.190547   5.190547
    25  C    6.623435   6.623435   8.806084   8.846950   8.846950
    26  C    8.845256   8.845256   6.943889   5.968220   5.968220
    27  H    9.192632   9.192632   6.597138   5.455714   5.455714
    28  H    9.402314   9.225966   7.614255   6.772367   6.525500
    29  H    9.225966   9.402313   7.614255   6.525500   6.772368
    30  H    7.614255   7.614255   9.328681   9.194207   9.194207
    31  H    6.772367   6.525500   9.194207   9.404620   9.228559
    32  H    6.525500   6.772368   9.194207   9.228559   9.404620
    33  H    5.700875   6.865501   6.795755   6.270560   7.344733
    34  H    5.569282   6.756629   5.592861   4.922253   6.233278
    35  H    6.756627   5.569280   5.592861   6.233278   4.922253
    36  H    6.865499   5.700873   6.795755   7.344733   6.270560
                   11         12         13         14         15
    11  O    0.000000
    12  O    2.335511   0.000000
    13  O    2.935849   3.751168   0.000000
    14  O    2.936247   3.751479   4.151640   0.000000
    15  O    3.122759   5.108925   3.122797   3.122797   0.000000
    16  Rh   2.077171   3.168147   2.076627   2.076627   2.275086
    17  Rh   3.168147   2.077171   3.167367   3.167367   4.725306
    18  O    4.152758   4.764453   2.936247   2.935849   3.122760
    19  O    3.751168   2.935849   2.334415   4.762941   5.108197
    20  C    3.591191   3.591191   4.897221   1.314458   4.408543
    21  O    4.764452   4.152758   3.751479   3.751168   5.108925
    22  O    3.751479   2.936247   4.762941   2.334415   5.108197
    23  O    5.108925   3.122760   5.108197   5.108197   7.000391
    24  C    4.897095   4.897095   3.580032   3.589585   4.408043
    25  C    4.854238   4.854238   6.382046   2.423021   5.466328
    26  C    6.382216   6.382216   4.800600   4.852577   5.465950
    27  H    6.799403   6.799403   4.773870   5.661913   5.831254
    28  H    6.688392   6.997688   5.236658   4.887833   5.292282
    29  H    6.997688   6.688392   5.626157   5.303015   6.379361
    30  H    5.663484   5.663485   6.799116   2.937171   5.831590
    31  H    4.890023   5.304950   6.689149   2.567754   5.293714
    32  H    5.304950   4.890023   6.998063   3.289610   6.379873
    33  H    5.665610   3.638765   5.956689   5.353557   7.582181
    34  H    5.662123   3.633334   5.353557   5.956689   7.582181
    35  H    3.633332   5.662122   3.132235   4.078292   0.981579
    36  H    3.638764   5.665609   4.078292   3.132235   0.981579
                   16         17         18         19         20
    16  Rh   0.000000
    17  Rh   2.450220   0.000000
    18  O    2.077171   3.168147   0.000000
    19  O    3.167367   2.076627   3.751479   0.000000
    20  C    2.946995   2.946995   3.580659   4.897221   0.000000
    21  O    3.168147   2.077171   2.335511   2.936247   3.580659
    22  O    3.167367   2.076627   3.751168   4.151640   1.314458
    23  O    4.725306   2.275086   5.108925   3.122797   4.408543
    24  C    2.946246   2.946247   1.314310   3.580032   3.789563
    25  C    4.373815   4.373815   4.800532   6.382046   1.518945
    26  C    4.373343   4.373343   2.422353   4.800601   5.005970
    27  H    4.822141   4.822140   2.936395   4.773870   5.902535
    28  H    4.623991   5.081559   2.565954   5.626157   5.188886
    29  H    5.081559   4.623991   3.288945   5.236658   5.188885
    30  H    4.822548   4.822548   4.773583   6.799116   2.155356
    31  H    4.625327   5.082478   5.237457   6.998063   2.161674
    32  H    5.082478   4.625327   5.626821   6.689149   2.161674
    33  H    5.326199   2.929783   5.662122   4.078292   4.444657
    34  H    5.326199   2.929783   5.665609   3.132235   5.344439
    35  H    2.929783   5.326199   3.638765   5.353557   5.344439
    36  H    2.929783   5.326199   3.633334   5.956689   4.444657
                   21         22         23         24         25
    21  O    0.000000
    22  O    2.935849   0.000000
    23  O    3.122759   3.122797   0.000000
    24  C    1.314310   3.589585   4.408043   0.000000
    25  C    4.800532   2.423021   5.466328   4.954451   0.000000
    26  C    2.422353   4.852577   5.465949   1.519262   5.936548
    27  H    2.936395   5.661913   5.831253   2.155465   6.942101
    28  H    3.288945   5.303015   6.379361   2.161535   5.965785
    29  H    2.565954   4.887833   5.292282   2.161535   5.965785
    30  H    4.773583   2.937171   5.831590   4.797995   1.106235
    31  H    5.626821   3.289610   6.379873   5.624999   1.101656
    32  H    5.237457   2.567753   5.293714   5.624999   1.101656
    33  H    3.633332   3.132235   0.981579   4.913578   5.263621
    34  H    3.638764   4.078292   0.981579   4.915885   6.442302
    35  H    5.665610   5.956689   7.582181   4.915885   6.442302
    36  H    5.662123   5.353557   7.582181   4.913579   5.263621
                   26         27         28         29         30
    26  C    0.000000
    27  H    1.106243   0.000000
    28  H    1.101665   1.789287   0.000000
    29  H    1.101665   1.789287   1.812469   0.000000
    30  H    5.526754   6.595013   5.453166   5.453166   0.000000
    31  H    6.622255   7.613338   6.523820   6.770749   1.789452
    32  H    6.622255   7.613338   6.770749   6.523820   1.789452
    33  H    5.887328   6.365460   6.756627   5.569280   5.592861
    34  H    5.877078   6.077452   6.865499   5.700873   6.795755
    35  H    5.877080   6.077454   5.700875   6.865501   6.795755
    36  H    5.887330   6.365462   5.569282   6.756628   5.592861
                   31         32         33         34         35
    31  H    0.000000
    32  H    1.811237   0.000000
    33  H    6.233278   4.922253   0.000000
    34  H    7.344733   6.270560   1.643129   0.000000
    35  H    6.270560   7.344733   8.240174   8.074689   0.000000
    36  H    4.922253   6.233278   8.074689   8.240174   1.643129
                   36
    36  H    0.000000
 Symmetry turned off by external request.
 Stoichiometry    C8H16O10Rh2
 Framework group  C1[X(C8H16O10Rh2)]
 Deg. of freedom   102
 Full point group                 C1      NOp   1
 Rotational constants (GHZ):      0.2593921      0.2590111      0.2521354
 Leave Link  202 at Sun Nov 24 22:20:10 2013, MaxMem=   33554432 cpu:       0.0
 (Enter /net/cottusp/opt/gaussian/g09revA02_amd64/g09/l301.exe)
 Standard basis: LANL2DZ (5D, 7F)
 Ernie: Thresh=  0.10000D-02 Tol=  0.10000D-05 Strict=F.
 Ernie:  2 primitive shells out of 370 were deleted.
 Integral buffers will be    131072 words long.
 Raffenetti 2 integral format.
 Two-electron integral symmetry is turned off.
   238 basis functions,   612 primitive gaussians,   242 cartesian basis functions
    89 alpha electrons       89 beta electrons
       nuclear repulsion energy      2357.7433732038 Hartrees.
 IExCor=  404 DFT=T Ex=B Corr=P86 ExCW=0 ScaHFX=  0.000000
 ScaDFX=  1.000000  1.000000  1.000000  1.000000 ScalE2=  1.000000  1.000000
 IRadAn=      5 IRanWt=     -1 IRanGd=            0 ICorTp=0
 NAtoms=   36 NActive=   36 NUniq=   36 SFac= 7.50D-01 NAtFMM=   80 NAOKFM=F Big=F
 Leave Link  301 at Sun Nov 24 22:20:10 2013, MaxMem=   33554432 cpu:       0.3
 (Enter /net/cottusp/opt/gaussian/g09revA02_amd64/g09/l302.exe)
 NPDir=0 NMtPBC=     1 NCelOv=     1 NCel=       1 NClECP=     1 NCelD=      1
         NCelK=      1 NCelE2=     1 NClLst=     1 CellRange=     0.0.
 One-electron integrals computed using PRISM.
   1 Symmetry operations used in ECPInt.
 ECPInt:  NShTT=    9591 NPrTT=   68474 LenC2=    9087 LenP2D=   38378.
 LDataN:  DoStor=T MaxTD1= 5 Len=  102
 NBasis=   238 RedAO= T  NBF=   238
 NBsUse=   238 1.00D-06 NBFU=   238
 Precomputing XC quadrature grid using
 IXCGrd= 2 IRadAn=           5 IRanWt=          -1 IRanGd=           0 AccXCQ= 1.00D-10.
 Defaulting to unpruned grid for atomic number  45.
 NRdTot=    3098 NPtTot=      879952 NUsed=      902119 NTot=      902151
 NSgBfM=   242   242   242   242   242 NAtAll=    36    36.
 Leave Link  302 at Sun Nov 24 22:20:15 2013, MaxMem=   33554432 cpu:       8.8
 (Enter /net/cottusp/opt/gaussian/g09revA02_amd64/g09/l303.exe)
 DipDrv:  MaxL=1.
 Leave Link  303 at Sun Nov 24 22:20:16 2013, MaxMem=   33554432 cpu:       0.1
 (Enter /net/cottusp/opt/gaussian/g09revA02_amd64/g09/l401.exe)
 Initial guess read from the read-write file.
 B after Tr=     0.000000    0.000000    0.000000
         Rot=    1.000000    0.000000    0.000000    0.000000 Ang=   0.00 deg.
 Guess basis will be translated and rotated to current coordinates.
 Leave Link  401 at Sun Nov 24 22:20:18 2013, MaxMem=   33554432 cpu:       0.5
 (Enter /net/cottusp/opt/gaussian/g09revA02_amd64/g09/l502.exe)
 Closed shell SCF:
 Requested convergence on RMS density matrix=1.00D-08 within 128 cycles.
 Requested convergence on MAX density matrix=1.00D-06.
 Requested convergence on             energy=1.00D-06.
 No special actions if energy rises.
 Using DIIS extrapolation, IDIIS=  1040.
 Two-electron integral symmetry not used.
       901782 words used for storage of precomputed grid.
 IEnd=     1098596 IEndB=     1098596 NGot=    33554432 MDV=    32531283
 LenX=    32531283 LenY=    32472278
 Fock matrices will be formed incrementally for  20 cycles.

 Cycle   1  Pass 1  IDiag  1:
 FoFCou: FMM=F IPFlag=           0 FMFlag=      100000 FMFlg1=           0
         NFxFlg=           0 DoJE=T BraDBF=F KetDBF=F FulRan=T
         Omega=  0.000000  0.000000  1.000000  0.000000  0.000000 ICntrl=     500 IOpCl=  0
         NMat0=    1 NMatS0=    1 NMatT0=    0 NMatD0=    1 NMtDS0=    0 NMtDT0=    0
         I1Cent=           0 NGrid=           0.
 Symmetry not used in FoFCou.
 Defaulting to unpruned grid for atomic number  45.
 Defaulting to unpruned grid for atomic number  45.
 E= -1286.10632675444    
 DIIS: error= 1.92D-07 at cycle   1 NSaved=   1.
 NSaved= 1 IEnMin= 1 EnMin= -1286.10632675444     IErMin= 1 ErrMin= 1.92D-07
 ErrMax= 1.92D-07 EMaxC= 1.00D-01 BMatC= 7.58D-12 BMatP= 7.58D-12
 IDIUse=1 WtCom= 1.00D+00 WtEn= 0.00D+00
 Coeff-Com:  0.100D+01
 Coeff:      0.100D+01
 Gap=     0.066 Goal=   None    Shift=    0.000
 RMSDP=3.87D-08 MaxDP=9.52D-07              OVMax= 1.63D-06

 Cycle   2  Pass 1  IDiag  1:
 RMSU=  2.74D-08    CP:  1.00D+00
 E= -1286.10632675447     Delta-E=       -0.000000000034 Rises=F Damp=F
 DIIS: error= 2.10D-07 at cycle   2 NSaved=   2.
 NSaved= 2 IEnMin= 2 EnMin= -1286.10632675447     IErMin= 1 ErrMin= 1.92D-07
 ErrMax= 2.10D-07 EMaxC= 1.00D-01 BMatC= 3.84D-12 BMatP= 7.58D-12
 IDIUse=1 WtCom= 1.00D+00 WtEn= 0.00D+00
 Coeff-Com:  0.358D+00 0.642D+00
 Coeff:      0.358D+00 0.642D+00
 Gap=     0.066 Goal=   None    Shift=    0.000
 RMSDP=3.45D-08 MaxDP=3.24D-06 DE=-3.37D-11 OVMax= 4.07D-06

 Cycle   3  Pass 1  IDiag  1:
 RMSU=  2.36D-08    CP:  1.00D+00  7.82D-01
 E= -1286.10632675439     Delta-E=        0.000000000078 Rises=F Damp=F
 DIIS: error= 8.14D-07 at cycle   3 NSaved=   3.
 NSaved= 3 IEnMin= 2 EnMin= -1286.10632675447     IErMin= 1 ErrMin= 1.92D-07
 ErrMax= 8.14D-07 EMaxC= 1.00D-01 BMatC= 4.47D-11 BMatP= 3.84D-12
 IDIUse=1 WtCom= 1.00D+00 WtEn= 0.00D+00
 Coeff-Com:  0.588D-01 0.736D+00 0.206D+00
 Coeff:      0.588D-01 0.736D+00 0.206D+00
 Gap=     0.066 Goal=   None    Shift=    0.000
 RMSDP=2.96D-08 MaxDP=2.77D-06 DE= 7.78D-11 OVMax= 3.61D-06

 Cycle   4  Pass 1  IDiag  1:
 RMSU=  4.73D-09    CP:  1.00D+00  9.35D-01  1.56D-01
 E= -1286.10632675444     Delta-E=       -0.000000000050 Rises=F Damp=F
 DIIS: error= 9.83D-08 at cycle   4 NSaved=   4.
 NSaved= 4 IEnMin= 2 EnMin= -1286.10632675447     IErMin= 4 ErrMin= 9.83D-08
 ErrMax= 9.83D-08 EMaxC= 1.00D-01 BMatC= 1.74D-12 BMatP= 3.84D-12
 IDIUse=1 WtCom= 1.00D+00 WtEn= 0.00D+00
 Coeff-Com:  0.114D-01 0.542D+00 0.171D+00 0.276D+00
 Coeff:      0.114D-01 0.542D+00 0.171D+00 0.276D+00
 Gap=     0.066 Goal=   None    Shift=    0.000
 RMSDP=5.71D-09 MaxDP=4.07D-07 DE=-4.96D-11 OVMax= 4.15D-07

 SCF Done:  E(RB-P86) =  -1286.10632675     A.U. after    4 cycles
             Convg  =    0.5706D-08             -V/T =  2.1306
 KE= 1.137545890634D+03 PE=-7.687369363611D+03 EE= 2.905973773019D+03
 Leave Link  502 at Sun Nov 24 22:21:58 2013, MaxMem=   33554432 cpu:     199.7
 (Enter /net/cottusp/opt/gaussian/g09revA02_amd64/g09/l701.exe)
 Compute integral first derivatives.
 ... and contract with generalized density number  0.
 DipInt: DoE/N= T T RetVal/Mat= T F Init=T NMatP=  1 IDeriv=0 Min/MaxMlt=  1  1
 Entering OneElI...
 Multipole integrals L=1 to 1 MinM= 0 MaxM= 0.
 Requested accuracy = 0.1000D-12
 PrsmSu:  NPrtUS=   1 ThrOK=F IAlg=1
 PRISM was handed    32854801 working-precision words and  8506 shell-pairs
 IPart=  0 NShTot=        8506 NBatch=          74 AvBLen=       114.9
 Entering OneElI...
 Calculate overlap and kinetic energy integrals
    NBasis = 242  MinDer = 1  MaxDer = 1
 Requested accuracy = 0.1000D-12
 PrsmSu:  NPrtUS=   2 ThrOK=T IAlg=1
 PRISM was handed    16178298 working-precision words and  9194 shell-pairs
 PRISM was handed    16178298 working-precision words and  9194 shell-pairs
 IPart=  0 NShTot=        4599 NBatch=          86 AvBLen=        53.5
 IPart=  1 NShTot=        4595 NBatch=          86 AvBLen=        53.4
 Entering OneElI...
 Calculate potential energy integrals
    NBasis = 242  MinDer = 1  MaxDer = 1
 Requested accuracy = 0.1000D-12
 PrsmSu:  NPrtUS=   2 ThrOK=T IAlg=1
 PRISM was handed    16332618 working-precision words and  7870 shell-pairs
 PRISM was handed    16332618 working-precision words and  7870 shell-pairs
 IPart=  0 NShTot=      141732 NBatch=        3937 AvBLen=        36.0
 IPart=  1 NShTot=      141588 NBatch=        3933 AvBLen=        36.0
   1 Symmetry operations used in ECPInt.
 ECPInt:  NShTT=    9591 NPrTT=   68474 LenC2=    9087 LenP2D=   38378.
 LDataN:  DoStor=F MaxTD1= 6 Len=  172
 LDataN:  DoStor=T MaxTD1= 6 Len=  172
 ECPSu:  NPrtUS=   2 ThrOK=T
 FXYZ after ECPSu
 I=    0 X=   0.000000000000D+00 Y=   0.000000000000D+00 Z=   0.000000000000D+00
 I=    1 X=  -1.698328729014D-04 Y=  -1.160101047964D-02 Z=   0.000000000000D+00
 I=    2 X=   4.713137311264D-06 Y=   1.716126186281D-04 Z=   0.000000000000D+00
 I=    3 X=  -1.167845397445D-02 Y=   1.707175040338D-04 Z=   0.000000000000D+00
 I=    4 X=   1.671332099378D-04 Y=  -4.911406887521D-06 Z=   0.000000000000D+00
 I=    5 X=   1.684196043630D-08 Y=  -9.110910981713D-08 Z=   0.000000000000D+00
 I=    6 X=  -1.082464516391D-08 Y=  -1.234827066992D-07 Z=   0.000000000000D+00
 I=    7 X=  -1.082465250299D-08 Y=  -1.234827309911D-07 Z=   0.000000000000D+00
 I=    8 X=  -8.986894232994D-08 Y=  -1.649581558202D-08 Z=   0.000000000000D+00
 I=    9 X=  -1.223651309464D-07 Y=   1.062220513917D-08 Z=   0.000000000000D+00
 I=   10 X=  -1.223651869104D-07 Y=   1.062219953502D-08 Z=   0.000000000000D+00
 I=   11 X=   7.808923359917D-05 Y=   3.829205951251D-02 Z=   1.315300275823D-03
 I=   12 X=   7.809068246363D-05 Y=   3.829206227025D-02 Z=  -1.315302724800D-03
 I=   13 X=   3.791615463265D-02 Y=  -7.572394734153D-05 Z=   1.255011806106D-03
 I=   14 X=  -3.791615346803D-02 Y=   7.572195271361D-05 Z=   1.255011959050D-03
 I=   15 X=   0.000000000000D+00 Y=   0.000000000000D+00 Z=  -1.773397792941D-02
 I=   16 X=   0.000000000000D+00 Y=   0.000000000000D+00 Z=  -7.445934869626D-02
 I=   17 X=   0.000000000000D+00 Y=   0.000000000000D+00 Z=   7.445935073113D-02
 I=   18 X=  -7.808879334690D-05 Y=  -3.829206358241D-02 Z=   1.315302336239D-03
 I=   19 X=   3.791615464300D-02 Y=  -7.572443402963D-05 Z=  -1.255012053309D-03
 I=   20 X=   1.167845402710D-02 Y=  -1.707175138487D-04 Z=   0.000000000000D+00
 I=   21 X=  -7.809133543714D-05 Y=  -3.829205829032D-02 Z=  -1.315300661903D-03
 I=   22 X=  -3.791615557288D-02 Y=   7.572648053316D-05 Z=  -1.255011905549D-03
 I=   23 X=   0.000000000000D+00 Y=   0.000000000000D+00 Z=   1.773397640342D-02
 I=   24 X=   1.698329095035D-04 Y=   1.160101047321D-02 Z=   0.000000000000D+00
 I=   25 X=  -1.671332099698D-04 Y=   4.911407055022D-06 Z=   0.000000000000D+00
 I=   26 X=  -4.713137895938D-06 Y=  -1.716126183969D-04 Z=   0.000000000000D+00
 I=   27 X=  -1.684195986947D-08 Y=   9.110910905117D-08 Z=   0.000000000000D+00
 I=   28 X=   1.082464354632D-08 Y=   1.234827114068D-07 Z=   0.000000000000D+00
 I=   29 X=   1.082465513860D-08 Y=   1.234827264101D-07 Z=   0.000000000000D+00
 I=   30 X=   8.986894191411D-08 Y=   1.649581538505D-08 Z=   0.000000000000D+00
 I=   31 X=   1.223651176667D-07 Y=  -1.062219961064D-08 Z=   0.000000000000D+00
 I=   32 X=   1.223652008025D-07 Y=  -1.062220538753D-08 Z=   0.000000000000D+00
 I=   33 X=   9.436153711169D-05 Y=   4.817864704347D-07 Z=  -2.179101448976D-04
 I=   34 X=  -9.436154231733D-05 Y=  -4.816002553650D-07 Z=  -2.179101477319D-04
 I=   35 X=  -9.436154242028D-05 Y=  -4.817873505886D-07 Z=   2.179101591359D-04
 I=   36 X=   9.436154741810D-05 Y=   4.816005810704D-07 Z=   2.179101613701D-04
 l701 out
 I=    0 X=   0.000000000000D+00 Y=   0.000000000000D+00 Z=  -4.638345938446D-07
 I=    1 X=  -4.658901157785D-01 Y=   2.013192326985D+01 Z=  -2.346057519079D-06
 I=    2 X=   5.187120993252D-02 Y=   1.275256639199D+01 Z=  -1.003400386629D-06
 I=    3 X=   2.018613056921D+01 Y=   4.617208355298D-01 Z=   8.019397766026D-07
 I=    4 X=   1.276510197429D+01 Y=  -4.040155916999D-02 Z=   0.000000000000D+00
 I=    5 X=  -6.037731229404D+00 Y=   3.243265942442D+00 Z=  -1.191103275055D-06
 I=    6 X=   2.763079636304D+00 Y=   3.494669365086D+00 Z=   5.125492821458D+00
 I=    7 X=   2.763081076333D+00 Y=   3.494667859412D+00 Z=  -5.125493504361D+00
 I=    8 X=   3.239439701282D+00 Y=   6.039754807352D+00 Z=   1.031201183165D-06
 I=    9 X=   3.506913890975D+00 Y=  -2.766666013946D+00 Z=   5.118226865656D+00
 I=   10 X=   3.506913932733D+00 Y=  -2.766664168998D+00 Z=  -5.118227760015D+00
 I=   11 X=   2.692461181192D-01 Y=   1.167326583661D+01 Z=  -2.273658262060D+01
 I=   12 X=   2.692474725679D-01 Y=   1.167326660894D+01 Z=   2.273658498597D+01
 I=   13 X=   1.160976131775D+01 Y=  -2.696129915752D-01 Z=  -2.309792727187D+01
 I=   14 X=  -1.160976121109D+01 Y=   2.696049292093D-01 Z=  -2.309792712027D+01
 I=   15 X=   0.000000000000D+00 Y=  -1.223609625335D-05 Z=  -1.333376580031D+01
 I=   16 X=  -1.377387915114D-07 Y=   2.017558270121D-07 Z=  -1.494066397677D+01
 I=   17 X=   2.811914515122D-07 Y=  -2.470037160085D-07 Z=   1.494066444674D+01
 I=   18 X=  -2.692449250909D-01 Y=  -1.167326639500D+01 Z=  -2.273658503318D+01
 I=   19 X=   1.160976171321D+01 Y=  -2.696082962536D-01 Z=   2.309792639759D+01
 I=   20 X=  -2.018613058197D+01 Y=  -4.617208294602D-01 Z=   4.349474877831D-07
 I=   21 X=  -2.692487116282D-01 Y=  -1.167326605536D+01 Z=   2.273658257098D+01
 I=   22 X=  -1.160976180557D+01 Y=   2.696163659312D-01 Z=   2.309792656868D+01
 I=   23 X=   2.887152127895D-08 Y=   1.222505837439D-05 Z=   1.333376593862D+01
 I=   24 X=   4.658900828990D-01 Y=  -2.013192326338D+01 Z=   1.693359684914D-06
 I=   25 X=  -1.276510197813D+01 Y=   4.040156871144D-02 Z=  -1.091891580629D-07
 I=   26 X=  -5.187124547154D-02 Y=  -1.275256639053D+01 Z=   9.724027473344D-07
 I=   27 X=   6.037731214648D+00 Y=  -3.243265966086D+00 Z=   1.816953800929D-06
 I=   28 X=  -2.763079188612D+00 Y=  -3.494669341677D+00 Z=  -5.125493030834D+00
 I=   29 X=  -2.763081551411D+00 Y=  -3.494667858932D+00 Z=   5.125493295717D+00
 I=   30 X=  -3.239439710324D+00 Y=  -6.039754805218D+00 Z=   1.788108997798D-08
 I=   31 X=  -3.506914070235D+00 Y=   2.766665324722D+00 Z=  -5.118227098954D+00
 I=   32 X=  -3.506913749945D+00 Y=   2.766664867881D+00 Z=   5.118227530538D+00
 I=   33 X=  -6.499370712425D+00 Y=  -3.792367384752D-02 Z=   5.070969468172D+00
 I=   34 X=   6.499370862620D+00 Y=   3.791257187005D-02 Z=   5.070969369537D+00
 I=   35 X=   6.499370643675D+00 Y=   3.792371474438D-02 Z=  -5.070969628424D+00
 I=   36 X=  -6.499370792346D+00 Y=  -3.791259457467D-02 Z=  -5.070969533656D+00
 Leave Link  701 at Sun Nov 24 22:22:02 2013, MaxMem=   33554432 cpu:       6.6
 (Enter /net/cottusp/opt/gaussian/g09revA02_amd64/g09/l702.exe)
 L702 exits ... SP integral derivatives will be done elsewhere.
 Leave Link  702 at Sun Nov 24 22:22:02 2013, MaxMem=   33554432 cpu:       0.0
 (Enter /net/cottusp/opt/gaussian/g09revA02_amd64/g09/l703.exe)
 Compute integral first derivatives, UseDBF=F ICtDFT=           0.
 Integral derivatives from FoFDir, PRISM(SPDF).
 ICntrl=      2127.
 Calling FoFJK, ICntrl=      2527 FMM=F ISym2X=0 I1Cent= 0 IOpClX= 0 NMat=1 NMatS=1 NMatT=0.
 FoFJK:  IHMeth= 1 ICntrl=  2527 DoSepK=F KAlg= 1 I1Cent= 0 FoldK=F
 FoFCou: FMM=F IPFlag=           0 FMFlag=      100000 FMFlg1=         800
         NFxFlg=           0 DoJE=F BraDBF=F KetDBF=F FulRan=T
         Omega=  0.000000  0.000000  1.000000  0.000000  0.000000 ICntrl=    2527 IOpCl=  0
         NMat0=    1 NMatS0=    1 NMatT0=    0 NMatD0=    1 NMtDS0=    0 NMtDT0=    0
         I1Cent=           0 NGrid=           0.
 Symmetry not used in FoFCou.
 FoFCou:  KetSym=F NOpSet=  1 NOpAb=1 NOp=  1.
 FoFCou:  CnvScl= 1.00D+00 Thresh= 1.00D-10
 PrismS was handed    32847419 working-precision words and  8370 shell-pairs
 LenC2 before Schwartz=        8371 after=        7913.
 FoFCou: LinMIO=F DoNuc=F BraDBF=F KetDBF=F HaveP=T PDBF=F HaveZ=T HaveW=F
         NIJTC =       6 NIJTAt=       0 NIJTCD=       0 NIJTT =       6
         IJTBeg=       1 IJTEnd=       6 KLTBeg=       1 KLTEnd=       6
         IPTBeg=       1 IPTEnd=       6 IPTBCv=       1 IPTECv=       6
         IZTBeg=       1 IZTEnd=       6 IZTBCv=       1 IZTECv=       6
         IWTBeg=       7 IWTEnd=       6 IWTBCv=       7 IWTECv=       6
         INTBeg=       1 INTEnd=       0 IFTBCv=       1 IFTECv=       6
 NCel replicated for PrismC:     1
 CoulSu:  NPrtUS=   2 ThrOK=T IAlg=1
 Enter PrismC: JobTyp=21 DoJE=F Cont=F.
 PrismC was handed    16300670 working-precision words and  7912 shell-pairs
 Enter PrismC: JobTyp=21 DoJE=F Cont=F.
 PrismC was handed    16300670 working-precision words and  7912 shell-pairs
 IPart=  1 NShTot=     9177063 NShNF=     9177063 NShFF=           0 NBatch=       60755 AvBLen=       151.1
 IPart=  0 NShTot=     9192870 NShNF=     9192870 NShFF=           0 NBatch=       60827 AvBLen=       151.1
 ReadGW:  IGet=0 IStart=           1 Next=       21831 LGW=       21830.
 Remaining memory in FofDFT       31.92 Mw
 Pruned (  99, 590) grid will be used in CalDFT.
 CkSvGd:  ISavGI=        -1 IRadAn=       5 IRASav=       5 ISavGd=        -1.
 CalDSu:  NPrtUS=   2 ThrOK=T IAlg=1
 IPart= 0 IRanGd=          0 ScrnBf=T ScrnGd=T RCrit=4.00D+00 DoMicB=T.
 CutRad = 1000.00    CtRdIn =    0.00    XCrit =  15.00   ICut = 0
 IPart= 1 IRanGd=          0 ScrnBf=T ScrnGd=T RCrit=4.00D+00 DoMicB=T.
 CutRad = 1000.00    CtRdIn =    0.00    XCrit =  15.00   ICut = 0
 Pruned (  99, 590) grid will be used in CalDFT.
 Pruned (  99, 590) grid will be used in CalDFT.
 Pruned (  99, 590) grid will be used in CalDFT.
 Pruned (  99, 590) grid will be used in CalDFT.
 Pruned (  99, 590) grid will be used in CalDFT.
 Pruned (  99, 590) grid will be used in CalDFT.
 Pruned (  99, 590) grid will be used in CalDFT.
 Pruned (  99, 590) grid will be used in CalDFT.
 Pruned (  99, 590) grid will be used in CalDFT.
 Pruned (  99, 590) grid will be used in CalDFT.
 Pruned (  99, 590) grid will be used in CalDFT.
 Pruned (  99, 590) grid will be used in CalDFT.
 Pruned (  99, 590) grid will be used in CalDFT.
 Pruned (  99, 590) grid will be used in CalDFT.
 Pruned (  99, 590) grid will be used in CalDFT.
 Pruned (  99, 590) grid will be used in CalDFT.
 Pruned (  99, 590) grid will be used in CalDFT.
 Pruned (  99, 590) grid will be used in CalDFT.
 Pruned (  99, 590) grid will be used in CalDFT.
 Pruned (  99, 590) grid will be used in CalDFT.
 Pruned (  99, 590) grid will be used in CalDFT.
 Pruned (  99, 590) grid will be used in CalDFT.
 Pruned (  99, 590) grid will be used in CalDFT.
 Pruned (  99, 590) grid will be used in CalDFT.
 Pruned (  99, 590) grid will be used in CalDFT.
 Pruned (  99, 590) grid will be used in CalDFT.
 Pruned (  99, 590) grid will be used in CalDFT.
 Pruned (  99, 590) grid will be used in CalDFT.
 Pruned (  99, 590) grid will be used in CalDFT.
 Pruned (  99, 590) grid will be used in CalDFT.
 Pruned (  99, 590) grid will be used in CalDFT.
 Defaulting to unpruned grid for atomic number  45.
 Pruned (  99, 590) grid will be used in CalDFT.
 Defaulting to unpruned grid for atomic number  45.
 Pruned (  99, 590) grid will be used in CalDFT.
 Pruned (  99, 590) grid will be used in CalDFT.
 Pruned (  99, 590) grid will be used in CalDFT.
 Pruned (  99, 590) grid will be used in CalDFT.
 Pruned (  99, 590) grid will be used in CalDFT.
 Pruned (  99, 590) grid will be used in CalDFT.
 Pruned (  99, 590) grid will be used in CalDFT.
 Pruned (  99, 590) grid will be used in CalDFT.
 Pruned (  99, 590) grid will be used in CalDFT.
 Pruned (  99, 590) grid will be used in CalDFT.
 Pruned (  99, 590) grid will be used in CalDFT.
 Pruned (  99, 590) grid will be used in CalDFT.
 Pruned (  99, 590) grid will be used in CalDFT.
 Pruned (  99, 590) grid will be used in CalDFT.
 Pruned (  99, 590) grid will be used in CalDFT.
 Pruned (  99, 590) grid will be used in CalDFT.
 Pruned (  99, 590) grid will be used in CalDFT.
 Pruned (  99, 590) grid will be used in CalDFT.
 Pruned (  99, 590) grid will be used in CalDFT.
 Pruned (  99, 590) grid will be used in CalDFT.
 Pruned (  99, 590) grid will be used in CalDFT.
 Pruned (  99, 590) grid will be used in CalDFT.
 Pruned (  99, 590) grid will be used in CalDFT.
 Pruned (  99, 590) grid will be used in CalDFT.
 Pruned (  99, 590) grid will be used in CalDFT.
 Pruned (  99, 590) grid will be used in CalDFT.
 Pruned (  99, 590) grid will be used in CalDFT.
 Pruned (  99, 590) grid will be used in CalDFT.
 Pruned (  99, 590) grid will be used in CalDFT.
 Pruned (  99, 590) grid will be used in CalDFT.
 Pruned (  99, 590) grid will be used in CalDFT.
 Pruned (  99, 590) grid will be used in CalDFT.
 Pruned (  99, 590) grid will be used in CalDFT.
 Pruned (  99, 590) grid will be used in CalDFT.
 Pruned (  99, 590) grid will be used in CalDFT.
 Pruned (  99, 590) grid will be used in CalDFT.
 Pruned (  99, 590) grid will be used in CalDFT.
 Pruned (  99, 590) grid will be used in CalDFT.
 Pruned (  99, 590) grid will be used in CalDFT.
 Pruned (  99, 590) grid will be used in CalDFT.
 IPart= 0       354897 of       428342 points in     442 batches and     1876 microbatches, Max-NSigAt=      36 Max-NSgAt2=      36
 IPart= 1       376133 of       460066 points in     480 batches and     2031 microbatches, Max-NSigAt=      36 Max-NSgAt2=      36
 Forces at end of L703
 I=    0 X=   0.000000000000D+00 Y=   0.000000000000D+00 Z=  -4.638345938446D-07
 I=    1 X=  -2.076576081089D-07 Y=   0.000000000000D+00 Z=   1.376252966894D-07
 I=    2 X=   5.507652377917D-08 Y=   1.997749166094D-08 Z=   0.000000000000D+00
 I=    3 X=   1.417390009806D-07 Y=   1.436561578028D-07 Z=   0.000000000000D+00
 I=    4 X=   9.392825184307D-08 Y=   3.782491521387D-08 Z=   0.000000000000D+00
 I=    5 X=  -6.628167170675D-08 Y=  -4.269164755044D-08 Z=   0.000000000000D+00
 I=    6 X=  -7.650922073665D-08 Y=   0.000000000000D+00 Z=  -2.767483753274D-08
 I=    7 X=  -6.956887066423D-08 Y=   0.000000000000D+00 Z=   1.359537993295D-08
 I=    8 X=  -6.839152444371D-08 Y=   0.000000000000D+00 Z=   0.000000000000D+00
 I=    9 X=  -2.157703704597D-08 Y=   7.394594314647D-08 Z=  -4.344969006809D-08
 I=   10 X=  -2.176143532040D-08 Y=   7.536254242879D-08 Z=   4.371835427008D-08
 I=   11 X=   1.531271964783D-08 Y=  -2.920656427818D-08 Z=   2.364656381815D-08
 I=   12 X=   1.204400373878D-08 Y=   1.749304168186D-08 Z=  -1.419614612530D-07
 I=   13 X=  -7.743731877952D-08 Y=  -2.076493532677D-08 Z=  -1.358490493431D-07
 I=   14 X=   7.741757634960D-08 Y=   0.000000000000D+00 Z=  -1.353068235233D-07
 I=   15 X=   0.000000000000D+00 Y=   1.418293627999D-08 Z=   4.104777318048D-08
 I=   16 X=   0.000000000000D+00 Y=  -3.230808761495D-08 Z=  -3.076336874130D-08
 I=   17 X=   0.000000000000D+00 Y=   3.215078523083D-08 Z=   3.211539834069D-08
 I=   18 X=  -1.265698829078D-08 Y=  -1.936147597803D-08 Z=   1.452698086268D-07
 I=   19 X=  -7.547377300909D-08 Y=   0.000000000000D+00 Z=   1.323349394511D-07
 I=   20 X=  -1.417176918039D-07 Y=  -1.436937045463D-07 Z=   0.000000000000D+00
 I=   21 X=  -1.538836685855D-08 Y=   3.110328883338D-08 Z=  -2.023832479381D-08
 I=   22 X=   7.550537794998D-08 Y=   2.222274531061D-08 Z=   1.328764476227D-07
 I=   23 X=   0.000000000000D+00 Y=  -1.413992682809D-08 Z=  -4.496645722440D-08
 I=   24 X=   2.077501554121D-07 Y=   0.000000000000D+00 Z=  -1.471451599525D-07
 I=   25 X=  -9.393145816716D-08 Y=  -3.782149009951D-08 Z=   0.000000000000D+00
 I=   26 X=  -5.508502789325D-08 Y=  -1.997410770116D-08 Z=   0.000000000000D+00
 I=   27 X=   6.628236803863D-08 Y=   4.270110620652D-08 Z=   0.000000000000D+00
 I=   28 X=   7.719176053911D-08 Y=   0.000000000000D+00 Z=   2.929126541318D-08
 I=   29 X=   6.888257875204D-08 Y=  -1.022177187338D-08 Z=  -1.197649535101D-08
 I=   30 X=   6.839409039117D-08 Y=   0.000000000000D+00 Z=   0.000000000000D+00
 I=   31 X=   2.228127549131D-08 Y=  -7.424405978895D-08 Z=   4.422456090225D-08
 I=   32 X=   2.105616037085D-08 Y=  -7.506234345200D-08 Z=  -4.294574029728D-08
 I=   33 X=   0.000000000000D+00 Y=   0.000000000000D+00 Z=   2.923291919643D-08
 I=   34 X=   0.000000000000D+00 Y=   1.645626322017D-08 Z=   2.927660514018D-08
 I=   35 X=  -1.105950175884D-08 Y=   0.000000000000D+00 Z=  -2.762483131136D-08
 I=   36 X=   1.130169824393D-08 Y=  -1.638658555375D-08 Z=  -2.767343953991D-08
 Leave Link  703 at Sun Nov 24 22:23:11 2013, MaxMem=   33554432 cpu:     136.7
 (Enter /net/cottusp/opt/gaussian/g09revA02_amd64/g09/l716.exe)
 FrcOut:
 IF    =  2543 IFX   =  2783 IFXYZ =  2891
 IFFX  =  2999 IFFFX =  2999 IFLen =   240
 IFFLen=     0 IFFFLn=     0 IEDerv=  2999
 LEDerv=  5237 IFroze=  8240 ICStrt=122409
 Dipole        =-1.91401761D-09 2.81381812D-09-4.63834594D-07
 -------------------------------------------------------------------
 Center     Atomic                   Forces (Hartrees/Bohr)
 Number     Number              X              Y              Z
 -------------------------------------------------------------------
      1        6           0.000000208    0.000000001   -0.000000138
      2        6          -0.000000055   -0.000000020   -0.000000002
      3        6          -0.000000142   -0.000000144   -0.000000003
      4        6          -0.000000094   -0.000000038    0.000000000
      5        1           0.000000066    0.000000043    0.000000001
      6        1           0.000000077   -0.000000004    0.000000028
      7        1           0.000000070   -0.000000009   -0.000000014
      8        1           0.000000068   -0.000000010    0.000000001
      9        1           0.000000022   -0.000000074    0.000000043
     10        1           0.000000022   -0.000000075   -0.000000044
     11        8          -0.000000015    0.000000029   -0.000000024
     12        8          -0.000000012   -0.000000017    0.000000142
     13        8           0.000000077    0.000000021    0.000000136
     14        8          -0.000000077   -0.000000008    0.000000135
     15        8           0.000000001   -0.000000014   -0.000000041
     16       45          -0.000000001    0.000000032    0.000000031
     17       45           0.000000000   -0.000000032   -0.000000032
     18        8           0.000000013    0.000000019   -0.000000145
     19        8           0.000000075    0.000000009   -0.000000132
     20        6           0.000000142    0.000000144   -0.000000002
     21        8           0.000000015   -0.000000031    0.000000020
     22        8          -0.000000076   -0.000000022   -0.000000133
     23        8          -0.000000001    0.000000014    0.000000045
     24        6          -0.000000208   -0.000000001    0.000000147
     25        6           0.000000094    0.000000038    0.000000002
     26        6           0.000000055    0.000000020    0.000000003
     27        1          -0.000000066   -0.000000043   -0.000000001
     28        1          -0.000000077    0.000000003   -0.000000029
     29        1          -0.000000069    0.000000010    0.000000012
     30        1          -0.000000068    0.000000010   -0.000000001
     31        1          -0.000000022    0.000000074   -0.000000044
     32        1          -0.000000021    0.000000075    0.000000043
     33        1          -0.000000007    0.000000007   -0.000000029
     34        1           0.000000008   -0.000000016   -0.000000029
     35        1           0.000000011   -0.000000007    0.000000028
     36        1          -0.000000011    0.000000016    0.000000028
 -------------------------------------------------------------------
 Cartesian Forces:  Max     0.000000208 RMS     0.000000066
 Final forces over variables, Energy=-1.28610633D+03:
  1.75500639D-08 6.17405963D-08 2.02898544D-07-8.94099497D-08
  1.66092527D-07 1.31876593D-07-5.39720050D-08-2.99933879D-07
 -2.98978098D-07 2.49023696D-07 2.34771518D-07 2.30694378D-07
  1.65955301D-09 1.34021263D-08 1.60706285D-08 1.53413858D-08
 -3.01585895D-07-2.32867053D-08-2.01787364D-09-1.87945714D-09
 -5.60717968D-08 1.04056934D-08 2.68946403D-08 4.65636831D-09
  2.77200437D-08-9.92778343D-09 1.85365732D-07-2.97326721D-07
 -5.40372196D-08 7.91064343D-08 1.69662098D-08 1.70709219D-08
  1.75286793D-08 2.49027972D-07 2.31072938D-07 2.34417624D-07
 -8.94150747D-08 1.58807522D-07 1.39182452D-07-6.43719292D-10
 -3.37679898D-08 3.80415623D-08-1.04746066D-07 6.26588690D-08
  6.10860096D-08 9.29221079D-09 9.86508612D-09-4.15780817D-08
 -6.06180620D-09-1.72611194D-08 2.53706173D-08-1.64890286D-08
  3.06586038D-08 3.07470332D-08-1.36992301D-08-1.09745147D-08
 -2.18768918D-08-5.83473640D-08-6.58052926D-08 4.50050812D-08
  4.51296535D-08-2.56498525D-08-2.59711856D-08 5.16210328D-08
  6.47903184D-09-3.20711903D-09-4.50366325D-08 5.56553101D-08
  5.50054876D-08-5.53963770D-08-7.00072014D-09 5.52041482D-08
 -5.48132590D-08 2.60624994D-09-4.39636440D-08 3.33449665D-08
  2.97150564D-08 7.46082361D-10-5.43355716D-09-4.03033804D-08
 -5.81896873D-08 5.19813372D-08-5.87809251D-08-2.04841858D-09
  5.85795423D-08 4.83295933D-09-4.13930132D-08 5.83910699D-08
 -6.46171202D-08 4.28690246D-08 2.53408853D-08-8.72752638D-09
 -1.45655535D-08-5.94697242D-08 4.27825359D-08-2.92072855D-08
 -2.95025634D-08 5.87098436D-08 3.80200220D-08-1.40177483D-08
 -2.03717915D-08-1.65166126D-08 3.21339246D-08 2.92803039D-08
 -1.31776654D-08-1.14805605D-08-2.18737806D-08-1.04773797D-07
  6.35199351D-08 6.02462433D-08 1.04561122D-08 8.71099557D-09
 -4.15821399D-08 8.98145898D-08 7.49156737D-08 1.04960348D-07
 -9.01998939D-08-1.05098810D-07-7.50541357D-08-1.38741960D-07
  5.64069527D-08 1.38803999D-07-5.67341364D-08 5.12108561D-08
  4.28477712D-08 5.61845527D-08-4.87617481D-08-5.71248331D-08
 -4.37880515D-08-7.92262440D-08 2.88547308D-08 8.48953040D-08
 -2.33198617D-08 3.00862989D-08-8.02556772D-08-2.51251515D-08
 -2.55176318D-08-5.07449084D-08 2.58472325D-08-3.23892801D-08
  8.44964997D-08 2.62386732D-08 5.11815499D-08 3.83109039D-08
 -6.57007643D-09-1.71929370D-08-5.07385886D-08-6.55703487D-08
 -2.04342554D-08-9.81139478D-09 2.34813205D-08 2.50412192D-08
 -8.30781364D-08-4.13562676D-10-7.16068665D-09-3.35448238D-09
 -4.47699196D-10 4.92639022D-09-1.82073375D-09 1.98547052D-09
  4.89225370D-09 2.86578834D-09 1.47815320D-09 3.22290695D-09
 -1.92486036D-09 1.00437750D-09-3.83257642D-10 1.36149611D-09
 -3.78627120D-09-1.91751466D-12-4.89388634D-10 4.64170101D-10
 -2.33010178D-11-3.37386789D-10-1.86240678D-09 3.01678967D-11
 -4.98021482D-09 6.12439117D-09 4.59937118D-09 6.49194586D-09
  1.48156314D-09 2.91055478D-09 1.38553479D-09 3.27810947D-09
 -1.73227325D-09-2.81574683D-10-1.80659468D-09 8.59800027D-11
 -4.92440271D-09-8.08243547D-08 2.93059475D-08-2.59971780D-08
 -2.56046978D-08-3.20422746D-09-1.34508595D-09 3.39454172D-09
  5.25368324D-09-1.03685832D-10 1.75545568D-09-3.15882382D-09
 -1.29968230D-09-2.32531870D-08 6.46052293D-09 5.85113055D-08
  1.70530179D-08 1.95099567D-08 2.57458244D-08 8.38940843D-08
 -3.31980007D-08 2.53543833D-08 4.36964308D-08 1.38262615D-08
 -3.80485264D-08 3.23376651D-09 7.07536379D-10-4.61410254D-09
  1.94802888D-09-3.37361005D-09 3.61599783D-10-4.96003914D-09
  5.65650971D-09 3.34870788D-10 5.65791022D-08-1.38761180D-07
 -2.70980692D-08 8.10912367D-08 4.98654330D-08 5.67160005D-08
  4.33696048D-08-5.01123175D-08-4.32617500D-08-5.66081456D-08
 -5.65300375D-08 1.38884882D-07 9.15681895D-08 1.04541122D-07
  7.44873872D-08-8.84771271D-08-7.55041942D-08-1.05557929D-07
 Leave Link  716 at Sun Nov 24 22:23:11 2013, MaxMem=   33554432 cpu:       0.0
 (Enter /net/cottusp/opt/gaussian/g09revA02_amd64/g09/l103.exe)

 GradGradGradGradGradGradGradGradGradGradGradGradGradGradGradGradGradGrad
 Berny optimization.
 Using GEDIIS/GDIIS optimizer.
 Internal  Forces:  Max     0.000000129 RMS     0.000000027
 Search for a local minimum.
 Step number   4 out of a maximum of  216
 All quantities printed in internal units (Hartrees-Bohrs-Radians)
 RMS Force = .26957D-07 SwitMx=.10000D-02 MixMth= 2
 Mixed Optimization -- En-DIIS/RFO-DIIS
 Swaping is turned off.
 Update second derivatives using D2CorX and points    1    2    4
 DE= -4.55D-12 DEPred=-8.04D-12 R= 5.66D-01
 Trust test= 5.66D-01 RLast= 2.17D-05 DXMaxT set to 1.50D-01
     Eigenvalues ---    0.00225   0.00230   0.00230   0.00230   0.00397
     Eigenvalues ---    0.00511   0.00511   0.00515   0.00515   0.01159
     Eigenvalues ---    0.01262   0.01264   0.01389   0.01734   0.01738
     Eigenvalues ---    0.01873   0.02251   0.02254   0.02393   0.02630
     Eigenvalues ---    0.03045   0.05176   0.05176   0.07206   0.07207
     Eigenvalues ---    0.07208   0.07221   0.07421   0.07421   0.07426
     Eigenvalues ---    0.07426   0.09377   0.09379   0.10020   0.10021
     Eigenvalues ---    0.11449   0.13186   0.13652   0.13672   0.14817
     Eigenvalues ---    0.14818   0.14838   0.14839   0.14899   0.15297
     Eigenvalues ---    0.15482   0.15999   0.16000   0.16000   0.16000
     Eigenvalues ---    0.16000   0.16000   0.16000   0.16000   0.16000
     Eigenvalues ---    0.16000   0.16000   0.16000   0.16000   0.16007
     Eigenvalues ---    0.16030   0.16252   0.17475   0.17489   0.18567
     Eigenvalues ---    0.18572   0.24193   0.24303   0.24307   0.24507
     Eigenvalues ---    0.24997   0.24997   0.24997   0.25001   0.30438
     Eigenvalues ---    0.30460   0.30468   0.30556   0.33001   0.33002
     Eigenvalues ---    0.33004   0.33224   0.33499   0.33499   0.33499
     Eigenvalues ---    0.33500   0.33500   0.33500   0.33500   0.36336
     Eigenvalues ---    0.51079   0.51079   0.51080   0.51083   0.56741
     Eigenvalues ---    0.56921   0.57308   0.58810   0.62151   0.62194
     Eigenvalues ---    0.62249   0.623871000.000001000.000001000.00000
     Eigenvalues --- 1000.000001000.000001000.000001000.000001000.00000
     Eigenvalues --- 1000.000001000.000001000.000001000.000001000.00000
     Eigenvalues --- 1000.000001000.000001000.000001000.000001000.00000
     Eigenvalues --- 1000.000001000.000001000.000001000.000001000.00000
     Eigenvalues --- 1000.000001000.000001000.000001000.000001000.00000
     Eigenvalues --- 1000.000001000.000001000.000001000.000001000.00000
     Eigenvalues --- 1000.000001000.000001000.000001000.000001000.00000
     Eigenvalues --- 1000.000001000.000001000.000001000.000001000.00000
     Eigenvalues --- 1000.000001000.000001000.000001000.000001000.00000
     Eigenvalues --- 1000.000001000.000001000.000001000.000001000.00000
     Eigenvalues --- 1000.000001000.000001000.000001000.000001000.00000
     Eigenvalues --- 1000.000001000.000001000.000001000.000001000.00000
     Eigenvalues --- 1000.000001000.000001000.000001000.000001000.00000
     Eigenvalues --- 1000.000001000.000001000.000001000.000001000.00000
     Eigenvalues --- 1000.000001000.000001000.000001000.000001000.00000
     Eigenvalues --- 1000.000001000.000001000.000001000.000001000.00000
     Eigenvalues --- 1000.000001000.000001000.000001000.000001000.00000
     Eigenvalues --- 1000.000001000.000001000.000001000.000001000.00000
     Eigenvalues --- 1000.000001000.000001000.000001000.000001000.00000
     Eigenvalues --- 1000.000001000.000001000.000001000.000001000.00000
     Eigenvalues --- 1000.000001000.000001000.000001000.000001000.00000
     Eigenvalues --- 1000.000001000.000001000.000001000.000001000.00000
     Eigenvalues --- 1000.000001000.000001000.000001000.000001000.00000
     Eigenvalues --- 1000.000001000.000001000.000001000.000001000.00000
     Eigenvalues --- 1000.000001000.000001000.000001000.000001000.00000
     Eigenvalues --- 1000.000001000.000001000.000001000.000001000.00000
     Eigenvalues --- 1000.000001000.000001000.000001000.000001000.00000
 En-DIIS/RFO-DIIS IScMMF=        0 using points:     4    3    2    1
 RFO step:  Lambda= 0.00000000D+00.
 DIIS coeffs:      1.00395      0.07804     -0.28895      0.20697
 Iteration  1 RMS(Cart)=  0.00000034 RMS(Int)=  0.00000000
 Variable       Old X    -DE/DX   Delta X   Delta X   Delta X     New X
                                  (DIIS)     (GDIIS)  (Total)
    R1        2.87099   0.00000   0.00000   0.00000   0.00000   2.87099
    R2        2.48369   0.00000   0.00000   0.00000   0.00000   2.48369
    R3        2.48369   0.00000   0.00000   0.00000   0.00000   2.48369
    R4        2.09050   0.00000   0.00000   0.00000   0.00000   2.09050
    R5        2.08185   0.00000   0.00000   0.00000   0.00000   2.08185
    R6        2.08185   0.00000   0.00000   0.00000   0.00000   2.08185
    R7        2.87039   0.00000   0.00000   0.00000   0.00000   2.87039
    R8        2.48397   0.00000   0.00000   0.00000   0.00000   2.48397
    R9        2.48397   0.00000   0.00000   0.00000   0.00000   2.48397
   R10        2.09048   0.00000   0.00000   0.00000   0.00000   2.09048
   R11        2.08183   0.00000   0.00000   0.00000   0.00000   2.08183
   R12        2.08183   0.00000   0.00000   0.00000   0.00000   2.08183
   R13        3.92528   0.00000   0.00000   0.00000   0.00000   3.92528
   R14        3.92528   0.00000   0.00000   0.00000   0.00000   3.92528
   R15        3.92426   0.00000   0.00000   0.00000   0.00000   3.92426
   R16        3.92426   0.00000   0.00000   0.00000   0.00000   3.92426
   R17        2.48397   0.00000   0.00000   0.00000   0.00000   2.48397
   R18        4.29929   0.00000   0.00000   0.00000   0.00000   4.29929
   R19        1.85491   0.00000   0.00000   0.00000   0.00000   1.85491
   R20        1.85491   0.00000   0.00000   0.00000   0.00000   1.85491
   R21        4.63025   0.00000   0.00000   0.00000   0.00000   4.63024
   R22        3.92528   0.00000   0.00000   0.00000   0.00000   3.92528
   R23        3.92426   0.00000   0.00000   0.00000   0.00000   3.92426
   R24        3.92528   0.00000   0.00000   0.00000   0.00000   3.92528
   R25        3.92426   0.00000   0.00000   0.00000   0.00000   3.92426
   R26        4.29929   0.00000   0.00000   0.00000   0.00000   4.29929
   R27        2.48369   0.00000   0.00000   0.00000   0.00000   2.48369
   R28        2.48397   0.00000   0.00000   0.00000   0.00000   2.48397
   R29        2.87039   0.00000   0.00000   0.00000   0.00000   2.87039
   R30        2.48369   0.00000   0.00000   0.00000   0.00000   2.48369
   R31        1.85491   0.00000   0.00000   0.00000   0.00000   1.85491
   R32        1.85491   0.00000   0.00000   0.00000   0.00000   1.85491
   R33        2.87099   0.00000   0.00000   0.00000   0.00000   2.87099
   R34        2.09048   0.00000   0.00000   0.00000   0.00000   2.09048
   R35        2.08183   0.00000   0.00000   0.00000   0.00000   2.08183
   R36        2.08183   0.00000   0.00000   0.00000   0.00000   2.08183
   R37        2.09050   0.00000   0.00000   0.00000   0.00000   2.09050
   R38        2.08185   0.00000   0.00000   0.00000   0.00000   2.08185
   R39        2.08185   0.00000   0.00000   0.00000   0.00000   2.08185
    A1        2.04744   0.00000   0.00000   0.00000   0.00000   2.04744
    A2        2.04744   0.00000   0.00000   0.00000   0.00000   2.04744
    A3        2.18810   0.00000   0.00000   0.00000   0.00000   2.18810
    A4        1.90863   0.00000   0.00000   0.00000   0.00000   1.90863
    A5        1.92162   0.00000   0.00000   0.00000   0.00000   1.92162
    A6        1.92162   0.00000   0.00000   0.00000   0.00000   1.92162
    A7        1.88966   0.00000   0.00000   0.00000   0.00000   1.88966
    A8        1.88966   0.00000   0.00000   0.00000   0.00000   1.88966
    A9        1.93195   0.00000   0.00000   0.00000   0.00000   1.93195
   A10        2.04856   0.00000   0.00000   0.00000   0.00000   2.04856
   A11        2.04856   0.00000   0.00000   0.00000   0.00000   2.04856
   A12        2.18585   0.00000   0.00000   0.00000   0.00000   2.18585
   A13        1.90887   0.00000   0.00000   0.00000   0.00000   1.90887
   A14        1.92220   0.00000   0.00000   0.00000   0.00000   1.92220
   A15        1.92220   0.00000   0.00000   0.00000   0.00000   1.92220
   A16        1.88994   0.00000   0.00000   0.00000   0.00000   1.88994
   A17        1.88994   0.00000   0.00000   0.00000   0.00000   1.88994
   A18        1.93001   0.00000   0.00000   0.00000   0.00000   1.93001
   A19        2.07510   0.00000   0.00000   0.00000   0.00000   2.07510
   A20        2.07510   0.00000   0.00000   0.00000   0.00000   2.07510
   A21        2.07650   0.00000   0.00000   0.00000   0.00000   2.07650
   A22        2.07650   0.00000   0.00000   0.00000   0.00000   2.07650
   A23        2.14985   0.00000   0.00000   0.00000   0.00000   2.14985
   A24        2.14985   0.00000   0.00000   0.00000   0.00000   2.14985
   A25        1.98349   0.00000   0.00000   0.00000   0.00000   1.98349
   A26        1.56989   0.00000   0.00000   0.00000   0.00000   1.56989
   A27        1.57016   0.00000   0.00000   0.00000   0.00000   1.57016
   A28        1.59841   0.00000   0.00000   0.00000   0.00000   1.59841
   A29        1.54318   0.00000   0.00000   0.00000   0.00000   1.54318
   A30        1.59868   0.00000   0.00000   0.00000   0.00000   1.59868
   A31        1.54291   0.00000   0.00000   0.00000   0.00000   1.54291
   A32        1.57016   0.00000   0.00000   0.00000   0.00000   1.57016
   A33        1.59868   0.00000   0.00000   0.00000   0.00000   1.59868
   A34        1.54291   0.00000   0.00000   0.00000   0.00000   1.54291
   A35        1.56989   0.00000   0.00000   0.00000   0.00000   1.56989
   A36        1.59841   0.00000   0.00000   0.00000   0.00000   1.59841
   A37        1.54318   0.00000   0.00000   0.00000   0.00000   1.54318
   A38        1.54318   0.00000   0.00000   0.00000   0.00000   1.54318
   A39        1.56989   0.00000   0.00000   0.00000   0.00000   1.56989
   A40        1.57016   0.00000   0.00000   0.00000   0.00000   1.57016
   A41        1.59841   0.00000   0.00000   0.00000   0.00000   1.59841
   A42        1.54291   0.00000   0.00000   0.00000   0.00000   1.54291
   A43        1.54318   0.00000   0.00000   0.00000   0.00000   1.54318
   A44        1.54291   0.00000   0.00000   0.00000   0.00000   1.54291
   A45        1.57016   0.00000   0.00000   0.00000   0.00000   1.57016
   A46        1.59868   0.00000   0.00000   0.00000   0.00000   1.59868
   A47        1.56989   0.00000   0.00000   0.00000   0.00000   1.56989
   A48        1.59841   0.00000   0.00000   0.00000   0.00000   1.59841
   A49        1.59868   0.00000   0.00000   0.00000   0.00000   1.59868
   A50        2.07510   0.00000   0.00000   0.00000   0.00000   2.07510
   A51        2.07650   0.00000   0.00000   0.00000   0.00000   2.07650
   A52        2.18585   0.00000   0.00000   0.00000   0.00000   2.18585
   A53        2.04856   0.00000   0.00000   0.00000   0.00000   2.04856
   A54        2.04856   0.00000   0.00000   0.00000   0.00000   2.04856
   A55        2.07510   0.00000   0.00000   0.00000   0.00000   2.07510
   A56        2.07650   0.00000   0.00000   0.00000   0.00000   2.07650
   A57        2.14985   0.00000   0.00000   0.00000   0.00000   2.14985
   A58        2.14985   0.00000   0.00000   0.00000   0.00000   2.14985
   A59        1.98349   0.00000   0.00000   0.00000   0.00000   1.98349
   A60        2.18810   0.00000   0.00000   0.00000   0.00000   2.18810
   A61        2.04744   0.00000   0.00000   0.00000   0.00000   2.04744
   A62        2.04744   0.00000   0.00000   0.00000   0.00000   2.04744
   A63        1.90887   0.00000   0.00000   0.00000   0.00000   1.90887
   A64        1.92220   0.00000   0.00000   0.00000   0.00000   1.92220
   A65        1.92220   0.00000   0.00000   0.00000   0.00000   1.92220
   A66        1.88994   0.00000   0.00000   0.00000   0.00000   1.88994
   A67        1.88994   0.00000   0.00000   0.00000   0.00000   1.88994
   A68        1.93001   0.00000   0.00000   0.00000   0.00000   1.93001
   A69        1.90863   0.00000   0.00000   0.00000   0.00000   1.90863
   A70        1.92162   0.00000   0.00000   0.00000   0.00000   1.92162
   A71        1.92162   0.00000   0.00000   0.00000   0.00000   1.92162
   A72        1.88966   0.00000   0.00000   0.00000   0.00000   1.88966
   A73        1.88966   0.00000   0.00000   0.00000   0.00000   1.88966
   A74        1.93195   0.00000   0.00000   0.00000   0.00000   1.93195
    D1        1.56036   0.00000   0.00000   0.00000   0.00000   1.56036
    D2       -2.64865   0.00000   0.00000   0.00000   0.00000  -2.64865
    D3       -0.51381   0.00000   0.00000   0.00000   0.00000  -0.51381
    D4       -1.56036   0.00000   0.00000   0.00000   0.00000  -1.56036
    D5        0.51381   0.00000   0.00000   0.00000   0.00000   0.51381
    D6        2.64865   0.00000   0.00000   0.00000   0.00000   2.64865
    D7       -3.10255   0.00000   0.00000   0.00000   0.00000  -3.10255
    D8        0.01630   0.00000   0.00000   0.00000   0.00000   0.01630
    D9        3.10255   0.00000   0.00000   0.00000   0.00000   3.10255
   D10       -0.01630   0.00000   0.00000   0.00000   0.00000  -0.01630
   D11        1.56016   0.00000   0.00000   0.00000   0.00000   1.56016
   D12       -2.64802   0.00000   0.00000   0.00000   0.00000  -2.64802
   D13       -0.51485   0.00000   0.00000   0.00000   0.00000  -0.51485
   D14       -1.56016   0.00000   0.00000   0.00000   0.00000  -1.56016
   D15        0.51485   0.00000   0.00000   0.00000   0.00000   0.51485
   D16        2.64802   0.00000   0.00000   0.00000   0.00000   2.64802
   D17       -3.10196   0.00000   0.00000   0.00000   0.00000  -3.10196
   D18        0.01650   0.00000   0.00000   0.00000   0.00000   0.01650
   D19        3.10196   0.00000   0.00000   0.00000   0.00000   3.10196
   D20       -0.01650   0.00000   0.00000   0.00000   0.00000  -0.01650
   D21       -1.55041   0.00000   0.00000   0.00000   0.00000  -1.55041
   D22        1.53543   0.00000   0.00000   0.00000   0.00000   1.53543
   D23        3.13411   0.00000   0.00000   0.00000   0.00000   3.13411
   D24       -0.00748   0.00000   0.00000   0.00000   0.00000  -0.00748
   D25       -0.01475   0.00000   0.00000   0.00000   0.00000  -0.01475
   D26        0.00748   0.00000   0.00000   0.00000   0.00000   0.00748
   D27        1.55041   0.00000   0.00000   0.00000   0.00000   1.55041
   D28       -1.53543   0.00000   0.00000   0.00000   0.00000  -1.53543
   D29       -3.13411   0.00000   0.00000   0.00000   0.00000  -3.13411
   D30        0.01475   0.00000   0.00000   0.00000   0.00000   0.01475
   D31        1.53560   0.00000   0.00000   0.00000   0.00000   1.53560
   D32        3.13400   0.00000   0.00000   0.00000   0.00000   3.13400
   D33       -0.00759   0.00000   0.00000   0.00000   0.00000  -0.00759
   D34       -1.55078   0.00000   0.00000   0.00000   0.00000  -1.55078
   D35       -1.55078   0.00000   0.00000   0.00000   0.00000  -1.55078
   D36        3.13400   0.00000   0.00000   0.00000   0.00000   3.13400
   D37       -0.00759   0.00000   0.00000   0.00000   0.00000  -0.00759
   D38        1.53560   0.00000   0.00000   0.00000   0.00000   1.53560
   D39        0.01650   0.00000   0.00000   0.00000   0.00000   0.01650
   D40       -3.10196   0.00000   0.00000   0.00000   0.00000  -3.10196
   D41        1.56501   0.00000   0.00000   0.00000   0.00000   1.56501
   D42       -0.00565   0.00000   0.00000   0.00000   0.00000  -0.00565
   D43        3.13594   0.00000   0.00000   0.00000   0.00000   3.13594
   D44       -1.57659   0.00000   0.00000   0.00000   0.00000  -1.57659
   D45       -1.57658   0.00000   0.00000   0.00000   0.00000  -1.57658
   D46        3.13594   0.00000   0.00000   0.00000   0.00000   3.13594
   D47       -0.00565   0.00000   0.00000   0.00000   0.00000  -0.00565
   D48        1.56501   0.00000   0.00000   0.00000   0.00000   1.56501
   D49        1.56501   0.00000   0.00000   0.00000   0.00000   1.56501
   D50       -0.00565   0.00000   0.00000   0.00000   0.00000  -0.00565
   D51       -1.57659   0.00000   0.00000   0.00000   0.00000  -1.57659
   D52        3.13594   0.00000   0.00000   0.00000   0.00000   3.13594
   D53       -1.57658   0.00000   0.00000   0.00000   0.00000  -1.57658
   D54        3.13594   0.00000   0.00000   0.00000   0.00000   3.13594
   D55        1.56501   0.00000   0.00000   0.00000   0.00000   1.56501
   D56       -0.00565   0.00000   0.00000   0.00000   0.00000  -0.00565
   D57        3.14159   0.00000   0.00000   0.00000   0.00000   3.14159
   D58        0.00000   0.00000   0.00000   0.00000   0.00000   0.00000
   D59        0.00000   0.00000   0.00000   0.00000   0.00000   0.00000
   D60        3.14159   0.00000   0.00000   0.00000   0.00000   3.14159
   D61        0.00000   0.00000   0.00000   0.00000   0.00000   0.00000
   D62       -1.57066   0.00000   0.00000   0.00000   0.00000  -1.57066
   D63        3.14159   0.00000   0.00000   0.00000   0.00000   3.14159
   D64        1.57093   0.00000   0.00000   0.00000   0.00000   1.57093
   D65        1.57066   0.00000   0.00000   0.00000   0.00000   1.57066
   D66        0.00000   0.00000   0.00000   0.00000   0.00000   0.00000
   D67       -1.57093   0.00000   0.00000   0.00000   0.00000  -1.57093
   D68        3.14159   0.00000   0.00000   0.00000   0.00000   3.14159
   D69       -1.57093   0.00000   0.00000   0.00000   0.00000  -1.57093
   D70        3.14159   0.00000   0.00000   0.00000   0.00000   3.14159
   D71        1.57066   0.00000   0.00000   0.00000   0.00000   1.57066
   D72        0.00000   0.00000   0.00000   0.00000   0.00000   0.00000
   D73        3.14159   0.00000   0.00000   0.00000   0.00000   3.14159
   D74        1.57093   0.00000   0.00000   0.00000   0.00000   1.57093
   D75        0.00000   0.00000   0.00000   0.00000   0.00000   0.00000
   D76       -1.57066   0.00000   0.00000   0.00000   0.00000  -1.57066
   D77        1.53543   0.00000   0.00000   0.00000   0.00000   1.53543
   D78       -1.55041   0.00000   0.00000   0.00000   0.00000  -1.55041
   D79        3.13411   0.00000   0.00000   0.00000   0.00000   3.13411
   D80       -0.00748   0.00000   0.00000   0.00000   0.00000  -0.00748
   D81        1.57659   0.00000   0.00000   0.00000   0.00000   1.57659
   D82       -1.56501   0.00000   0.00000   0.00000   0.00000  -1.56501
   D83       -3.13594   0.00000   0.00000   0.00000   0.00000  -3.13594
   D84        0.00565   0.00000   0.00000   0.00000   0.00000   0.00565
   D85        0.00565   0.00000   0.00000   0.00000   0.00000   0.00565
   D86       -3.13594   0.00000   0.00000   0.00000   0.00000  -3.13594
   D87       -1.56501   0.00000   0.00000   0.00000   0.00000  -1.56501
   D88        1.57658   0.00000   0.00000   0.00000   0.00000   1.57658
   D89       -1.53560   0.00000   0.00000   0.00000   0.00000  -1.53560
   D90        0.00759   0.00000   0.00000   0.00000   0.00000   0.00759
   D91        1.55078   0.00000   0.00000   0.00000   0.00000   1.55078
   D92       -3.13400   0.00000   0.00000   0.00000   0.00000  -3.13400
   D93        0.01496   0.00000   0.00000   0.00000   0.00000   0.01496
   D94        0.00748   0.00000   0.00000   0.00000   0.00000   0.00748
   D95       -1.53543   0.00000   0.00000   0.00000   0.00000  -1.53543
   D96        1.55041   0.00000   0.00000   0.00000   0.00000   1.55041
   D97       -3.13411   0.00000   0.00000   0.00000   0.00000  -3.13411
   D98        1.55078   0.00000   0.00000   0.00000   0.00000   1.55078
   D99        0.00759   0.00000   0.00000   0.00000   0.00000   0.00759
   D100      -1.53560   0.00000   0.00000   0.00000   0.00000  -1.53560
   D101      -3.13400   0.00000   0.00000   0.00000   0.00000  -3.13400
   D102       1.57659   0.00000   0.00000   0.00000   0.00000   1.57659
   D103      -1.56501   0.00000   0.00000   0.00000   0.00000  -1.56501
   D104      -3.13594   0.00000   0.00000   0.00000   0.00000  -3.13594
   D105       0.00565   0.00000   0.00000   0.00000   0.00000   0.00565
   D106      -1.56501   0.00000   0.00000   0.00000   0.00000  -1.56501
   D107       1.57658   0.00000   0.00000   0.00000   0.00000   1.57658
   D108       0.00565   0.00000   0.00000   0.00000   0.00000   0.00565
   D109      -3.13594   0.00000   0.00000   0.00000   0.00000  -3.13594
   D110       0.01630   0.00000   0.00000   0.00000   0.00000   0.01630
   D111      -3.10255   0.00000   0.00000   0.00000   0.00000  -3.10255
   D112      -0.01650   0.00000   0.00000   0.00000   0.00000  -0.01650
   D113       3.10196   0.00000   0.00000   0.00000   0.00000   3.10196
   D114       1.56016   0.00000   0.00000   0.00000   0.00000   1.56016
   D115      -0.51485   0.00000   0.00000   0.00000   0.00000  -0.51485
   D116      -2.64802   0.00000   0.00000   0.00000   0.00000  -2.64802
   D117      -1.56016   0.00000   0.00000   0.00000   0.00000  -1.56016
   D118       2.64802   0.00000   0.00000   0.00000   0.00000   2.64802
   D119       0.51485   0.00000   0.00000   0.00000   0.00000   0.51485
   D120      -0.01630   0.00000   0.00000   0.00000   0.00000  -0.01630
   D121       3.10255   0.00000   0.00000   0.00000   0.00000   3.10255
   D122       1.56036   0.00000   0.00000   0.00000   0.00000   1.56036
   D123      -0.51381   0.00000   0.00000   0.00000   0.00000  -0.51381
   D124      -2.64865   0.00000   0.00000   0.00000   0.00000  -2.64865
   D125      -1.56036   0.00000   0.00000   0.00000   0.00000  -1.56036
   D126       2.64865   0.00000   0.00000   0.00000   0.00000   2.64865
   D127       0.51381   0.00000   0.00000   0.00000   0.00000   0.51381
         Item               Value     Threshold  Converged?
 Maximum Force            0.000000     0.000002     YES
 RMS     Force            0.000000     0.000001     YES
 Maximum Displacement     0.000001     0.000006     YES
 RMS     Displacement     0.000000     0.000004     YES
 Predicted change in Energy=-4.697576D-13
 Optimization completed.
    -- Stationary point found.
                           ----------------------------
                           !   Optimized Parameters   !
                           ! (Angstroms and Degrees)  !
 --------------------------                            --------------------------
 ! Name  Definition              Value          Derivative Info.                !
 --------------------------------------------------------------------------------
 ! R1    R(1,2)                  1.5193         -DE/DX =    0.0                 !
 ! R2    R(1,11)                 1.3143         -DE/DX =    0.0                 !
 ! R3    R(1,12)                 1.3143         -DE/DX =    0.0                 !
 ! R4    R(2,5)                  1.1062         -DE/DX =    0.0                 !
 ! R5    R(2,6)                  1.1017         -DE/DX =    0.0                 !
 ! R6    R(2,7)                  1.1017         -DE/DX =    0.0                 !
 ! R7    R(3,4)                  1.5189         -DE/DX =    0.0                 !
 ! R8    R(3,13)                 1.3145         -DE/DX =    0.0                 !
 ! R9    R(3,19)                 1.3145         -DE/DX =    0.0                 !
 ! R10   R(4,8)                  1.1062         -DE/DX =    0.0                 !
 ! R11   R(4,9)                  1.1017         -DE/DX =    0.0                 !
 ! R12   R(4,10)                 1.1017         -DE/DX =    0.0                 !
 ! R13   R(11,16)                2.0772         -DE/DX =    0.0                 !
 ! R14   R(12,17)                2.0772         -DE/DX =    0.0                 !
 ! R15   R(13,16)                2.0766         -DE/DX =    0.0                 !
 ! R16   R(14,16)                2.0766         -DE/DX =    0.0                 !
 ! R17   R(14,20)                1.3145         -DE/DX =    0.0                 !
 ! R18   R(15,16)                2.2751         -DE/DX =    0.0                 !
 ! R19   R(15,35)                0.9816         -DE/DX =    0.0                 !
 ! R20   R(15,36)                0.9816         -DE/DX =    0.0                 !
 ! R21   R(16,17)                2.4502         -DE/DX =    0.0                 !
 ! R22   R(16,18)                2.0772         -DE/DX =    0.0                 !
 ! R23   R(17,19)                2.0766         -DE/DX =    0.0                 !
 ! R24   R(17,21)                2.0772         -DE/DX =    0.0                 !
 ! R25   R(17,22)                2.0766         -DE/DX =    0.0                 !
 ! R26   R(17,23)                2.2751         -DE/DX =    0.0                 !
 ! R27   R(18,24)                1.3143         -DE/DX =    0.0                 !
 ! R28   R(20,22)                1.3145         -DE/DX =    0.0                 !
 ! R29   R(20,25)                1.5189         -DE/DX =    0.0                 !
 ! R30   R(21,24)                1.3143         -DE/DX =    0.0                 !
 ! R31   R(23,33)                0.9816         -DE/DX =    0.0                 !
 ! R32   R(23,34)                0.9816         -DE/DX =    0.0                 !
 ! R33   R(24,26)                1.5193         -DE/DX =    0.0                 !
 ! R34   R(25,30)                1.1062         -DE/DX =    0.0                 !
 ! R35   R(25,31)                1.1017         -DE/DX =    0.0                 !
 ! R36   R(25,32)                1.1017         -DE/DX =    0.0                 !
 ! R37   R(26,27)                1.1062         -DE/DX =    0.0                 !
 ! R38   R(26,28)                1.1017         -DE/DX =    0.0                 !
 ! R39   R(26,29)                1.1017         -DE/DX =    0.0                 !
 ! A1    A(2,1,11)             117.3094         -DE/DX =    0.0                 !
 ! A2    A(2,1,12)             117.3094         -DE/DX =    0.0                 !
 ! A3    A(11,1,12)            125.3691         -DE/DX =    0.0                 !
 ! A4    A(1,2,5)              109.3564         -DE/DX =    0.0                 !
 ! A5    A(1,2,6)              110.1006         -DE/DX =    0.0                 !
 ! A6    A(1,2,7)              110.1006         -DE/DX =    0.0                 !
 ! A7    A(5,2,6)              108.2697         -DE/DX =    0.0                 !
 ! A8    A(5,2,7)              108.2697         -DE/DX =    0.0                 !
 ! A9    A(6,2,7)              110.6928         -DE/DX =    0.0                 !
 ! A10   A(4,3,13)             117.3737         -DE/DX =    0.0                 !
 ! A11   A(4,3,19)             117.3737         -DE/DX =    0.0                 !
 ! A12   A(13,3,19)            125.24           -DE/DX =    0.0                 !
 ! A13   A(3,4,8)              109.37           -DE/DX =    0.0                 !
 ! A14   A(3,4,9)              110.1339         -DE/DX =    0.0                 !
 ! A15   A(3,4,10)             110.1339         -DE/DX =    0.0                 !
 ! A16   A(8,4,9)              108.2855         -DE/DX =    0.0                 !
 ! A17   A(8,4,10)             108.2855         -DE/DX =    0.0                 !
 ! A18   A(9,4,10)             110.5814         -DE/DX =    0.0                 !
 ! A19   A(1,11,16)            118.8946         -DE/DX =    0.0                 !
 ! A20   A(1,12,17)            118.8946         -DE/DX =    0.0                 !
 ! A21   A(3,13,16)            118.9746         -DE/DX =    0.0                 !
 ! A22   A(16,14,20)           118.9746         -DE/DX =    0.0                 !
 ! A23   A(16,15,35)           123.1771         -DE/DX =    0.0                 !
 ! A24   A(16,15,36)           123.1771         -DE/DX =    0.0                 !
 ! A25   A(35,15,36)           113.6457         -DE/DX =    0.0                 !
 ! A26   A(11,16,13)            89.9481         -DE/DX =    0.0                 !
 ! A27   A(11,16,14)            89.9636         -DE/DX =    0.0                 !
 ! A28   A(11,16,15)            91.5822         -DE/DX =    0.0                 !
 ! A29   A(11,16,17)            88.4178         -DE/DX =    0.0                 !
 ! A30   A(13,16,15)            91.5978         -DE/DX =    0.0                 !
 ! A31   A(13,16,17)            88.4022         -DE/DX =    0.0                 !
 ! A32   A(13,16,18)            89.9636         -DE/DX =    0.0                 !
 ! A33   A(14,16,15)            91.5978         -DE/DX =    0.0                 !
 ! A34   A(14,16,17)            88.4022         -DE/DX =    0.0                 !
 ! A35   A(14,16,18)            89.9481         -DE/DX =    0.0                 !
 ! A36   A(15,16,18)            91.5822         -DE/DX =    0.0                 !
 ! A37   A(17,16,18)            88.4178         -DE/DX =    0.0                 !
 ! A38   A(12,17,16)            88.4178         -DE/DX =    0.0                 !
 ! A39   A(12,17,19)            89.9481         -DE/DX =    0.0                 !
 ! A40   A(12,17,22)            89.9636         -DE/DX =    0.0                 !
 ! A41   A(12,17,23)            91.5823         -DE/DX =    0.0                 !
 ! A42   A(16,17,19)            88.4022         -DE/DX =    0.0                 !
 ! A43   A(16,17,21)            88.4177         -DE/DX =    0.0                 !
 ! A44   A(16,17,22)            88.4022         -DE/DX =    0.0                 !
 ! A45   A(19,17,21)            89.9636         -DE/DX =    0.0                 !
 ! A46   A(19,17,23)            91.5978         -DE/DX =    0.0                 !
 ! A47   A(21,17,22)            89.9481         -DE/DX =    0.0                 !
 ! A48   A(21,17,23)            91.5822         -DE/DX =    0.0                 !
 ! A49   A(22,17,23)            91.5978         -DE/DX =    0.0                 !
 ! A50   A(16,18,24)           118.8946         -DE/DX =    0.0                 !
 ! A51   A(3,19,17)            118.9746         -DE/DX =    0.0                 !
 ! A52   A(14,20,22)           125.24           -DE/DX =    0.0                 !
 ! A53   A(14,20,25)           117.3737         -DE/DX =    0.0                 !
 ! A54   A(22,20,25)           117.3737         -DE/DX =    0.0                 !
 ! A55   A(17,21,24)           118.8946         -DE/DX =    0.0                 !
 ! A56   A(17,22,20)           118.9746         -DE/DX =    0.0                 !
 ! A57   A(17,23,33)           123.1771         -DE/DX =    0.0                 !
 ! A58   A(17,23,34)           123.1771         -DE/DX =    0.0                 !
 ! A59   A(33,23,34)           113.6457         -DE/DX =    0.0                 !
 ! A60   A(18,24,21)           125.3691         -DE/DX =    0.0                 !
 ! A61   A(18,24,26)           117.3094         -DE/DX =    0.0                 !
 ! A62   A(21,24,26)           117.3094         -DE/DX =    0.0                 !
 ! A63   A(20,25,30)           109.37           -DE/DX =    0.0                 !
 ! A64   A(20,25,31)           110.1339         -DE/DX =    0.0                 !
 ! A65   A(20,25,32)           110.1339         -DE/DX =    0.0                 !
 ! A66   A(30,25,31)           108.2855         -DE/DX =    0.0                 !
 ! A67   A(30,25,32)           108.2855         -DE/DX =    0.0                 !
 ! A68   A(31,25,32)           110.5814         -DE/DX =    0.0                 !
 ! A69   A(24,26,27)           109.3564         -DE/DX =    0.0                 !
 ! A70   A(24,26,28)           110.1006         -DE/DX =    0.0                 !
 ! A71   A(24,26,29)           110.1006         -DE/DX =    0.0                 !
 ! A72   A(27,26,28)           108.2697         -DE/DX =    0.0                 !
 ! A73   A(27,26,29)           108.2697         -DE/DX =    0.0                 !
 ! A74   A(28,26,29)           110.6928         -DE/DX =    0.0                 !
 ! D1    D(11,1,2,5)            89.4021         -DE/DX =    0.0                 !
 ! D2    D(11,1,2,6)          -151.7566         -DE/DX =    0.0                 !
 ! D3    D(11,1,2,7)           -29.4393         -DE/DX =    0.0                 !
 ! D4    D(12,1,2,5)           -89.4021         -DE/DX =    0.0                 !
 ! D5    D(12,1,2,6)            29.4393         -DE/DX =    0.0                 !
 ! D6    D(12,1,2,7)           151.7566         -DE/DX =    0.0                 !
 ! D7    D(2,1,11,16)         -177.7628         -DE/DX =    0.0                 !
 ! D8    D(12,1,11,16)           0.9341         -DE/DX =    0.0                 !
 ! D9    D(2,1,12,17)          177.7628         -DE/DX =    0.0                 !
 ! D10   D(11,1,12,17)          -0.9341         -DE/DX =    0.0                 !
 ! D11   D(13,3,4,8)            89.3905         -DE/DX =    0.0                 !
 ! D12   D(13,3,4,9)          -151.7204         -DE/DX =    0.0                 !
 ! D13   D(13,3,4,10)          -29.4986         -DE/DX =    0.0                 !
 ! D14   D(19,3,4,8)           -89.3905         -DE/DX =    0.0                 !
 ! D15   D(19,3,4,9)            29.4986         -DE/DX =    0.0                 !
 ! D16   D(19,3,4,10)          151.7204         -DE/DX =    0.0                 !
 ! D17   D(4,3,13,16)         -177.729          -DE/DX =    0.0                 !
 ! D18   D(19,3,13,16)           0.9456         -DE/DX =    0.0                 !
 ! D19   D(4,3,19,17)          177.729          -DE/DX =    0.0                 !
 ! D20   D(13,3,19,17)          -0.9456         -DE/DX =    0.0                 !
 ! D21   D(1,11,16,13)         -88.8318         -DE/DX =    0.0                 !
 ! D22   D(1,11,16,14)          87.9738         -DE/DX =    0.0                 !
 ! D23   D(1,11,16,15)         179.5712         -DE/DX =    0.0                 !
 ! D24   D(1,11,16,17)          -0.4288         -DE/DX =    0.0                 !
 ! D25   D(1,11,18,24)          -0.845          -DE/DX =    0.0                 !
 ! D26   D(1,12,17,16)           0.4288         -DE/DX =    0.0                 !
 ! D27   D(1,12,17,19)          88.8318         -DE/DX =    0.0                 !
 ! D28   D(1,12,17,22)         -87.9738         -DE/DX =    0.0                 !
 ! D29   D(1,12,17,23)        -179.5712         -DE/DX =    0.0                 !
 ! D30   D(1,12,21,24)           0.845          -DE/DX =    0.0                 !
 ! D31   D(3,13,16,11)          87.9836         -DE/DX =    0.0                 !
 ! D32   D(3,13,16,15)         179.565          -DE/DX =    0.0                 !
 ! D33   D(3,13,16,17)          -0.435          -DE/DX =    0.0                 !
 ! D34   D(3,13,16,18)         -88.8532         -DE/DX =    0.0                 !
 ! D35   D(20,14,16,11)        -88.8532         -DE/DX =    0.0                 !
 ! D36   D(20,14,16,15)        179.565          -DE/DX =    0.0                 !
 ! D37   D(20,14,16,17)         -0.435          -DE/DX =    0.0                 !
 ! D38   D(20,14,16,18)         87.9836         -DE/DX =    0.0                 !
 ! D39   D(16,14,20,22)          0.9456         -DE/DX =    0.0                 !
 ! D40   D(16,14,20,25)       -177.729          -DE/DX =    0.0                 !
 ! D41   D(35,15,16,11)         89.6683         -DE/DX =    0.0                 !
 ! D42   D(35,15,16,13)         -0.3239         -DE/DX =    0.0                 !
 ! D43   D(35,15,16,14)        179.6761         -DE/DX =    0.0                 !
 ! D44   D(35,15,16,18)        -90.3317         -DE/DX =    0.0                 !
 ! D45   D(36,15,16,11)        -90.3316         -DE/DX =    0.0                 !
 ! D46   D(36,15,16,13)        179.6762         -DE/DX =    0.0                 !
 ! D47   D(36,15,16,14)         -0.3238         -DE/DX =    0.0                 !
 ! D48   D(36,15,16,18)         89.6684         -DE/DX =    0.0                 !
 ! D49   D(35,15,17,12)         89.6683         -DE/DX =    0.0                 !
 ! D50   D(35,15,17,19)         -0.324          -DE/DX =    0.0                 !
 ! D51   D(35,15,17,21)        -90.3317         -DE/DX =    0.0                 !
 ! D52   D(35,15,17,22)        179.676          -DE/DX =    0.0                 !
 ! D53   D(36,15,17,12)        -90.3316         -DE/DX =    0.0                 !
 ! D54   D(36,15,17,19)        179.6762         -DE/DX =    0.0                 !
 ! D55   D(36,15,17,21)         89.6684         -DE/DX =    0.0                 !
 ! D56   D(36,15,17,22)         -0.3238         -DE/DX =    0.0                 !
 ! D57   D(35,15,23,33)        180.0            -DE/DX =    0.0                 !
 ! D58   D(35,15,23,34)         -0.0001         -DE/DX =    0.0                 !
 ! D59   D(36,15,23,33)          0.0001         -DE/DX =    0.0                 !
 ! D60   D(36,15,23,34)        180.0            -DE/DX =    0.0                 !
 ! D61   D(11,16,17,12)          0.0            -DE/DX =    0.0                 !
 ! D62   D(11,16,17,19)        -89.9922         -DE/DX =    0.0                 !
 ! D63   D(11,16,17,21)        180.0            -DE/DX =    0.0                 !
 ! D64   D(11,16,17,22)         90.0078         -DE/DX =    0.0                 !
 ! D65   D(13,16,17,12)         89.9922         -DE/DX =    0.0                 !
 ! D66   D(13,16,17,19)          0.0            -DE/DX =    0.0                 !
 ! D67   D(13,16,17,21)        -90.0078         -DE/DX =    0.0                 !
 ! D68   D(13,16,17,22)        180.0            -DE/DX =    0.0                 !
 ! D69   D(14,16,17,12)        -90.0078         -DE/DX =    0.0                 !
 ! D70   D(14,16,17,19)        180.0            -DE/DX =    0.0                 !
 ! D71   D(14,16,17,21)         89.9922         -DE/DX =    0.0                 !
 ! D72   D(14,16,17,22)          0.0            -DE/DX =    0.0                 !
 ! D73   D(18,16,17,12)        180.0            -DE/DX =    0.0                 !
 ! D74   D(18,16,17,19)         90.0078         -DE/DX =    0.0                 !
 ! D75   D(18,16,17,21)          0.0            -DE/DX =    0.0                 !
 ! D76   D(18,16,17,22)        -89.9922         -DE/DX =    0.0                 !
 ! D77   D(13,16,18,24)         87.9738         -DE/DX =    0.0                 !
 ! D78   D(14,16,18,24)        -88.8318         -DE/DX =    0.0                 !
 ! D79   D(15,16,18,24)        179.5712         -DE/DX =    0.0                 !
 ! D80   D(17,16,18,24)         -0.4288         -DE/DX =    0.0                 !
 ! D81   D(11,16,23,33)         90.3317         -DE/DX =    0.0                 !
 ! D82   D(11,16,23,34)        -89.6684         -DE/DX =    0.0                 !
 ! D83   D(13,16,23,33)       -179.676          -DE/DX =    0.0                 !
 ! D84   D(13,16,23,34)          0.3238         -DE/DX =    0.0                 !
 ! D85   D(14,16,23,33)          0.3239         -DE/DX =    0.0                 !
 ! D86   D(14,16,23,34)       -179.6762         -DE/DX =    0.0                 !
 ! D87   D(18,16,23,33)        -89.6683         -DE/DX =    0.0                 !
 ! D88   D(18,16,23,34)         90.3316         -DE/DX =    0.0                 !
 ! D89   D(12,17,19,3)         -87.9836         -DE/DX =    0.0                 !
 ! D90   D(16,17,19,3)           0.435          -DE/DX =    0.0                 !
 ! D91   D(21,17,19,3)          88.8532         -DE/DX =    0.0                 !
 ! D92   D(23,17,19,3)        -179.565          -DE/DX =    0.0                 !
 ! D93   D(3,19,22,20)           0.8572         -DE/DX =    0.0                 !
 ! D94   D(16,17,21,24)          0.4288         -DE/DX =    0.0                 !
 ! D95   D(19,17,21,24)        -87.9738         -DE/DX =    0.0                 !
 ! D96   D(22,17,21,24)         88.8318         -DE/DX =    0.0                 !
 ! D97   D(23,17,21,24)       -179.5712         -DE/DX =    0.0                 !
 ! D98   D(12,17,22,20)         88.8532         -DE/DX =    0.0                 !
 ! D99   D(16,17,22,20)          0.435          -DE/DX =    0.0                 !
 ! D100  D(21,17,22,20)        -87.9835         -DE/DX =    0.0                 !
 ! D101  D(23,17,22,20)       -179.565          -DE/DX =    0.0                 !
 ! D102  D(12,17,23,33)         90.3317         -DE/DX =    0.0                 !
 ! D103  D(12,17,23,34)        -89.6684         -DE/DX =    0.0                 !
 ! D104  D(19,17,23,33)       -179.6761         -DE/DX =    0.0                 !
 ! D105  D(19,17,23,34)          0.3238         -DE/DX =    0.0                 !
 ! D106  D(21,17,23,33)        -89.6683         -DE/DX =    0.0                 !
 ! D107  D(21,17,23,34)         90.3316         -DE/DX =    0.0                 !
 ! D108  D(22,17,23,33)          0.324          -DE/DX =    0.0                 !
 ! D109  D(22,17,23,34)       -179.6762         -DE/DX =    0.0                 !
 ! D110  D(16,18,24,21)          0.9341         -DE/DX =    0.0                 !
 ! D111  D(16,18,24,26)       -177.7628         -DE/DX =    0.0                 !
 ! D112  D(14,20,22,17)         -0.9456         -DE/DX =    0.0                 !
 ! D113  D(25,20,22,17)        177.729          -DE/DX =    0.0                 !
 ! D114  D(14,20,25,30)         89.3905         -DE/DX =    0.0                 !
 ! D115  D(14,20,25,31)        -29.4986         -DE/DX =    0.0                 !
 ! D116  D(14,20,25,32)       -151.7204         -DE/DX =    0.0                 !
 ! D117  D(22,20,25,30)        -89.3905         -DE/DX =    0.0                 !
 ! D118  D(22,20,25,31)        151.7204         -DE/DX =    0.0                 !
 ! D119  D(22,20,25,32)         29.4986         -DE/DX =    0.0                 !
 ! D120  D(17,21,24,18)         -0.9341         -DE/DX =    0.0                 !
 ! D121  D(17,21,24,26)        177.7628         -DE/DX =    0.0                 !
 ! D122  D(18,24,26,27)         89.4021         -DE/DX =    0.0                 !
 ! D123  D(18,24,26,28)        -29.4393         -DE/DX =    0.0                 !
 ! D124  D(18,24,26,29)       -151.7566         -DE/DX =    0.0                 !
 ! D125  D(21,24,26,27)        -89.4021         -DE/DX =    0.0                 !
 ! D126  D(21,24,26,28)        151.7566         -DE/DX =    0.0                 !
 ! D127  D(21,24,26,29)         29.4393         -DE/DX =    0.0                 !
 --------------------------------------------------------------------------------
 GradGradGradGradGradGradGradGradGradGradGradGradGradGradGradGradGradGrad

 Largest change from initial coordinates is atom   30       0.000 Angstoms.
 Leave Link  103 at Sun Nov 24 22:23:11 2013, MaxMem=   33554432 cpu:       0.4
 (Enter /net/cottusp/opt/gaussian/g09revA02_amd64/g09/l202.exe)
                          Input orientation:                          
 ---------------------------------------------------------------------
 Center     Atomic      Atomic             Coordinates (Angstroms)
 Number     Number       Type             X           Y           Z
 ---------------------------------------------------------------------
      1          6           0       -0.008636    2.679440    0.000000
      2          6           0       -0.061034    4.197798    0.000000
      3          6           0        2.680261    0.009119    0.000000
      4          6           0        4.198269    0.062469    0.000000
      5          1           0       -1.116771    4.528241    0.000000
      6          1           0        0.424670    4.593394    0.906234
      7          1           0        0.424670    4.593394   -0.906235
      8          1           0        4.528290    1.118331    0.000000
      9          1           0        4.594794   -0.423607    0.905618
     10          1           0        4.594794   -0.423606   -0.905619
     11          8           0       -0.000019    2.076379   -1.167756
     12          8           0       -0.000019    2.076379    1.167755
     13          8           0        2.075820    0.000300   -1.167208
     14          8           0       -2.075820   -0.000301   -1.167207
     15          8           0        0.000000    0.000000   -3.500196
     16         45           0        0.000000    0.000000   -1.225110
     17         45           0        0.000000    0.000000    1.225110
     18          8           0        0.000019   -2.076379   -1.167755
     19          8           0        2.075820    0.000300    1.167207
     20          6           0       -2.680261   -0.009119    0.000000
     21          8           0        0.000019   -2.076379    1.167756
     22          8           0       -2.075820   -0.000300    1.167208
     23          8           0        0.000000    0.000000    3.500196
     24          6           0        0.008636   -2.679440    0.000000
     25          6           0       -4.198269   -0.062469    0.000000
     26          6           0        0.061034   -4.197798    0.000000
     27          1           0        1.116771   -4.528241    0.000001
     28          1           0       -0.424670   -4.593394   -0.906234
     29          1           0       -0.424670   -4.593394    0.906235
     30          1           0       -4.528290   -1.118331    0.000000
     31          1           0       -4.594794    0.423607   -0.905618
     32          1           0       -4.594794    0.423607    0.905619
     33          1           0       -0.821551   -0.004764    4.037344
     34          1           0        0.821551    0.004762    4.037344
     35          1           0        0.821551    0.004764   -4.037344
     36          1           0       -0.821551   -0.004762   -4.037344
 ---------------------------------------------------------------------
                    Distance matrix (angstroms):
                    1          2          3          4          5
     1  C    0.000000
     2  C    1.519262   0.000000
     3  C    3.789563   5.005970   0.000000
     4  C    4.954451   5.936548   1.518945   0.000000
     5  H    2.155465   1.106243   5.902535   6.942101   0.000000
     6  H    2.161535   1.101665   5.188886   5.965785   1.789287
     7  H    2.161535   1.101665   5.188885   5.965785   1.789287
     8  H    4.797995   5.526754   2.155356   1.106235   6.595013
     9  H    5.624999   6.622255   2.161674   1.101656   7.613338
    10  H    5.624999   6.622255   2.161674   1.101656   7.613338
    11  O    1.314310   2.422353   3.580659   4.800532   2.936395
    12  O    1.314310   2.422353   3.580659   4.800532   2.936395
    13  O    3.589585   4.852577   1.314458   2.423021   5.661913
    14  O    3.580032   4.800601   4.897221   6.382046   4.773870
    15  O    4.408043   5.465949   4.408543   5.466328   5.831253
    16  Rh   2.946247   4.373343   2.946995   4.373815   4.822140
    17  Rh   2.946246   4.373343   2.946995   4.373815   4.822140
    18  O    4.897095   6.382216   3.591191   4.854238   6.799403
    19  O    3.589585   4.852577   1.314458   2.423021   5.661913
    20  C    3.790241   4.955653   5.360554   6.878903   4.799181
    21  O    4.897095   6.382216   3.591191   4.854238   6.799403
    22  O    3.580032   4.800600   4.897221   6.382046   4.773870
    23  O    4.408043   5.465950   4.408543   5.466328   5.831253
    24  C    5.358908   6.877591   3.790241   5.007104   7.295012
    25  C    5.007104   5.938569   6.878903   8.397468   5.529037
    26  C    6.877591   8.396483   4.955653   5.938569   8.805168
    27  H    7.295012   8.805168   4.799181   5.529037   9.327839
    28  H    7.340876   8.845256   5.625387   6.623435   9.192632
    29  H    7.340876   8.845256   5.625387   6.623435   9.192632
    30  H    5.903417   6.943889   7.296187   8.806084   6.597138
    31  H    5.190547   5.968220   7.342913   8.846950   5.455714
    32  H    5.190547   5.968220   7.342913   8.846950   5.455714
    33  H    4.915885   5.877080   5.344439   6.442302   6.077454
    34  H    4.913579   5.887330   4.444657   5.263621   6.365462
    35  H    4.913578   5.887328   4.444657   5.263621   6.365460
    36  H    4.915885   5.877078   5.344439   6.442302   6.077452
                    6          7          8          9         10
     6  H    0.000000
     7  H    1.812469   0.000000
     8  H    5.453166   5.453166   0.000000
     9  H    6.523820   6.770749   1.789452   0.000000
    10  H    6.770749   6.523820   1.789452   1.811237   0.000000
    11  O    3.288945   2.565954   4.773583   5.626821   5.237457
    12  O    2.565954   3.288945   4.773583   5.237457   5.626821
    13  O    5.303015   4.887833   2.937171   3.289610   2.567753
    14  O    5.626157   5.236658   6.799116   6.998063   6.689149
    15  O    6.379360   5.292281   5.831590   6.379873   5.293714
    16  Rh   5.081559   4.623991   4.822548   5.082478   4.625327
    17  Rh   4.623991   5.081559   4.822548   4.625327   5.082478
    18  O    6.997688   6.688392   5.663485   5.304950   4.890023
    19  O    4.887833   5.303015   2.937171   2.567754   3.289610
    20  C    5.625387   5.625387   7.296187   7.342913   7.342913
    21  O    6.688392   6.997688   5.663484   4.890023   5.304950
    22  O    5.236658   5.626157   6.799116   6.689149   6.998063
    23  O    5.292282   6.379361   5.831590   5.293714   6.379873
    24  C    7.340876   7.340876   5.903417   5.190547   5.190547
    25  C    6.623435   6.623435   8.806084   8.846950   8.846950
    26  C    8.845256   8.845256   6.943889   5.968220   5.968220
    27  H    9.192632   9.192632   6.597138   5.455714   5.455714
    28  H    9.402314   9.225966   7.614255   6.772367   6.525500
    29  H    9.225966   9.402313   7.614255   6.525500   6.772368
    30  H    7.614255   7.614255   9.328681   9.194207   9.194207
    31  H    6.772367   6.525500   9.194207   9.404620   9.228559
    32  H    6.525500   6.772368   9.194207   9.228559   9.404620
    33  H    5.700875   6.865501   6.795755   6.270560   7.344733
    34  H    5.569282   6.756629   5.592861   4.922253   6.233278
    35  H    6.756627   5.569280   5.592861   6.233278   4.922253
    36  H    6.865499   5.700873   6.795755   7.344733   6.270560
                   11         12         13         14         15
    11  O    0.000000
    12  O    2.335511   0.000000
    13  O    2.935849   3.751168   0.000000
    14  O    2.936247   3.751479   4.151640   0.000000
    15  O    3.122759   5.108925   3.122797   3.122797   0.000000
    16  Rh   2.077171   3.168147   2.076627   2.076627   2.275086
    17  Rh   3.168147   2.077171   3.167367   3.167367   4.725306
    18  O    4.152758   4.764453   2.936247   2.935849   3.122760
    19  O    3.751168   2.935849   2.334415   4.762941   5.108197
    20  C    3.591191   3.591191   4.897221   1.314458   4.408543
    21  O    4.764452   4.152758   3.751479   3.751168   5.108925
    22  O    3.751479   2.936247   4.762941   2.334415   5.108197
    23  O    5.108925   3.122760   5.108197   5.108197   7.000391
    24  C    4.897095   4.897095   3.580032   3.589585   4.408043
    25  C    4.854238   4.854238   6.382046   2.423021   5.466328
    26  C    6.382216   6.382216   4.800600   4.852577   5.465950
    27  H    6.799403   6.799403   4.773870   5.661913   5.831254
    28  H    6.688392   6.997688   5.236658   4.887833   5.292282
    29  H    6.997688   6.688392   5.626157   5.303015   6.379361
    30  H    5.663484   5.663485   6.799116   2.937171   5.831590
    31  H    4.890023   5.304950   6.689149   2.567754   5.293714
    32  H    5.304950   4.890023   6.998063   3.289610   6.379873
    33  H    5.665610   3.638765   5.956689   5.353557   7.582181
    34  H    5.662123   3.633334   5.353557   5.956689   7.582181
    35  H    3.633332   5.662122   3.132235   4.078292   0.981579
    36  H    3.638764   5.665609   4.078292   3.132235   0.981579
                   16         17         18         19         20
    16  Rh   0.000000
    17  Rh   2.450220   0.000000
    18  O    2.077171   3.168147   0.000000
    19  O    3.167367   2.076627   3.751479   0.000000
    20  C    2.946995   2.946995   3.580659   4.897221   0.000000
    21  O    3.168147   2.077171   2.335511   2.936247   3.580659
    22  O    3.167367   2.076627   3.751168   4.151640   1.314458
    23  O    4.725306   2.275086   5.108925   3.122797   4.408543
    24  C    2.946246   2.946247   1.314310   3.580032   3.789563
    25  C    4.373815   4.373815   4.800532   6.382046   1.518945
    26  C    4.373343   4.373343   2.422353   4.800601   5.005970
    27  H    4.822141   4.822140   2.936395   4.773870   5.902535
    28  H    4.623991   5.081559   2.565954   5.626157   5.188886
    29  H    5.081559   4.623991   3.288945   5.236658   5.188885
    30  H    4.822548   4.822548   4.773583   6.799116   2.155356
    31  H    4.625327   5.082478   5.237457   6.998063   2.161674
    32  H    5.082478   4.625327   5.626821   6.689149   2.161674
    33  H    5.326199   2.929783   5.662122   4.078292   4.444657
    34  H    5.326199   2.929783   5.665609   3.132235   5.344439
    35  H    2.929783   5.326199   3.638765   5.353557   5.344439
    36  H    2.929783   5.326199   3.633334   5.956689   4.444657
                   21         22         23         24         25
    21  O    0.000000
    22  O    2.935849   0.000000
    23  O    3.122759   3.122797   0.000000
    24  C    1.314310   3.589585   4.408043   0.000000
    25  C    4.800532   2.423021   5.466328   4.954451   0.000000
    26  C    2.422353   4.852577   5.465949   1.519262   5.936548
    27  H    2.936395   5.661913   5.831253   2.155465   6.942101
    28  H    3.288945   5.303015   6.379361   2.161535   5.965785
    29  H    2.565954   4.887833   5.292282   2.161535   5.965785
    30  H    4.773583   2.937171   5.831590   4.797995   1.106235
    31  H    5.626821   3.289610   6.379873   5.624999   1.101656
    32  H    5.237457   2.567753   5.293714   5.624999   1.101656
    33  H    3.633332   3.132235   0.981579   4.913578   5.263621
    34  H    3.638764   4.078292   0.981579   4.915885   6.442302
    35  H    5.665610   5.956689   7.582181   4.915885   6.442302
    36  H    5.662123   5.353557   7.582181   4.913579   5.263621
                   26         27         28         29         30
    26  C    0.000000
    27  H    1.106243   0.000000
    28  H    1.101665   1.789287   0.000000
    29  H    1.101665   1.789287   1.812469   0.000000
    30  H    5.526754   6.595013   5.453166   5.453166   0.000000
    31  H    6.622255   7.613338   6.523820   6.770749   1.789452
    32  H    6.622255   7.613338   6.770749   6.523820   1.789452
    33  H    5.887328   6.365460   6.756627   5.569280   5.592861
    34  H    5.877078   6.077452   6.865499   5.700873   6.795755
    35  H    5.877080   6.077454   5.700875   6.865501   6.795755
    36  H    5.887330   6.365462   5.569282   6.756628   5.592861
                   31         32         33         34         35
    31  H    0.000000
    32  H    1.811237   0.000000
    33  H    6.233278   4.922253   0.000000
    34  H    7.344733   6.270560   1.643129   0.000000
    35  H    6.270560   7.344733   8.240174   8.074689   0.000000
    36  H    4.922253   6.233278   8.074689   8.240174   1.643129
                   36
    36  H    0.000000
 Symmetry turned off by external request.
 Stoichiometry    C8H16O10Rh2
 Framework group  C1[X(C8H16O10Rh2)]
 Deg. of freedom   102
 Full point group                 C1      NOp   1
 Rotational constants (GHZ):      0.2593921      0.2590111      0.2521354
 Leave Link  202 at Sun Nov 24 22:23:12 2013, MaxMem=   33554432 cpu:       0.0
 (Enter /net/cottusp/opt/gaussian/g09revA02_amd64/g09/l601.exe)
 Copying SCF densities to generalized density rwf, IOpCl= 0 IROHF=0.

 **********************************************************************

            Population analysis using the SCF density.

 **********************************************************************

 Alpha  occ. eigenvalues --  -18.81206 -18.81206 -18.78960 -18.78960 -18.78960
 Alpha  occ. eigenvalues --  -18.78960 -18.78523 -18.78522 -18.78522 -18.78522
 Alpha  occ. eigenvalues --  -10.03504 -10.03504 -10.03041 -10.03041  -9.91434
 Alpha  occ. eigenvalues --   -9.91434  -9.91094  -9.91094  -2.95707  -2.95480
 Alpha  occ. eigenvalues --   -1.79984  -1.79855  -1.79778  -1.79648  -1.79123
 Alpha  occ. eigenvalues --   -1.77281  -0.97988  -0.97571  -0.97327  -0.97199
 Alpha  occ. eigenvalues --   -0.94685  -0.94683  -0.89784  -0.89323  -0.89189
 Alpha  occ. eigenvalues --   -0.88936  -0.66867  -0.66691  -0.66478  -0.66330
 Alpha  occ. eigenvalues --   -0.51780  -0.51741  -0.49723  -0.48950  -0.48003
 Alpha  occ. eigenvalues --   -0.47599  -0.44628  -0.43857  -0.41747  -0.41327
 Alpha  occ. eigenvalues --   -0.41153  -0.40377  -0.40168  -0.40133  -0.39875
 Alpha  occ. eigenvalues --   -0.39698  -0.39347  -0.39168  -0.37343  -0.36701
 Alpha  occ. eigenvalues --   -0.35451  -0.35126  -0.35094  -0.34783  -0.34273
 Alpha  occ. eigenvalues --   -0.32929  -0.32591  -0.31587  -0.29997  -0.29518
 Alpha  occ. eigenvalues --   -0.29241  -0.27706  -0.27662  -0.26110  -0.25666
 Alpha  occ. eigenvalues --   -0.25655  -0.25171  -0.24971  -0.24923  -0.23982
 Alpha  occ. eigenvalues --   -0.23448  -0.23123  -0.20759  -0.19761  -0.19085
 Alpha  occ. eigenvalues --   -0.18915  -0.14608  -0.14435  -0.13865
 Alpha virt. eigenvalues --   -0.07313  -0.07162  -0.05859  -0.03522  -0.03152
 Alpha virt. eigenvalues --   -0.02478  -0.02091  -0.01324  -0.01029   0.03346
 Alpha virt. eigenvalues --    0.03938   0.05301   0.05971   0.07188   0.10933
 Alpha virt. eigenvalues --    0.11529   0.11920   0.12378   0.13809   0.13960
 Alpha virt. eigenvalues --    0.14011   0.14446   0.14994   0.15061   0.15296
 Alpha virt. eigenvalues --    0.16380   0.16763   0.16840   0.17334   0.17362
 Alpha virt. eigenvalues --    0.18155   0.18248   0.18470   0.18539   0.19636
 Alpha virt. eigenvalues --    0.20000   0.20490   0.20885   0.23044   0.24371
 Alpha virt. eigenvalues --    0.25485   0.26866   0.27096   0.27326   0.27572
 Alpha virt. eigenvalues --    0.28028   0.28997   0.29360   0.29988   0.31149
 Alpha virt. eigenvalues --    0.31403   0.32210   0.32392   0.32518   0.34696
 Alpha virt. eigenvalues --    0.36506   0.36678   0.36803   0.37567   0.38985
 Alpha virt. eigenvalues --    0.39532   0.40250   0.40255   0.40653   0.44059
 Alpha virt. eigenvalues --    0.45776   0.46121   0.46953   0.49692   0.50793
 Alpha virt. eigenvalues --    0.50817   0.52545   0.52623   0.55575   0.55581
 Alpha virt. eigenvalues --    0.60134   0.62630   0.64337   0.64743   0.64949
 Alpha virt. eigenvalues --    0.65865   0.67291   0.67936   0.71201   0.74435
 Alpha virt. eigenvalues --    0.75227   0.75260   0.75833   0.76628   0.76833
 Alpha virt. eigenvalues --    0.79140   0.81446   0.83165   0.84587   0.84780
 Alpha virt. eigenvalues --    0.85308   0.86215   0.86628   0.87223   0.87397
 Alpha virt. eigenvalues --    0.89879   0.90689   0.91260   0.92628   0.92761
 Alpha virt. eigenvalues --    0.93337   0.93450   0.94539   0.95345   0.97517
 Alpha virt. eigenvalues --    0.99704   1.00202   1.00207   1.01097   1.01762
 Alpha virt. eigenvalues --    1.02374   1.03762   1.04532   1.05326   1.06049
 Alpha virt. eigenvalues --    1.07347   1.07791   1.08781   1.08783   1.09554
 Alpha virt. eigenvalues --    1.13246   1.15117   1.18112   1.18471   1.19404
 Alpha virt. eigenvalues --    1.22359   1.27241   1.27773   1.32441   1.36062
 Alpha virt. eigenvalues --    1.37863   1.37912   1.69003   1.77699   1.78406
 Alpha virt. eigenvalues --    1.80755   1.84656   1.89939   1.90288   2.00161
 Alpha virt. eigenvalues --    2.03261   2.11049   5.91730   7.26023
          Condensed to atoms (all electrons):
              1          2          3          4          5          6
     1  C    4.915428   0.255473   0.002503  -0.000567  -0.021967  -0.022614
     2  C    0.255473   5.620453  -0.000517   0.000028   0.364698   0.354858
     3  C    0.002503  -0.000517   4.890411   0.258281   0.000002   0.000005
     4  C   -0.000567   0.000028   0.258281   5.615853   0.000000  -0.000001
     5  H   -0.021967   0.364698   0.000002   0.000000   0.459626  -0.018944
     6  H   -0.022614   0.354858   0.000005  -0.000001  -0.018944   0.459019
     7  H   -0.022614   0.354858   0.000005  -0.000001  -0.018944  -0.019539
     8  H   -0.000005  -0.000002  -0.022041   0.364503   0.000000   0.000000
     9  H    0.000005   0.000000  -0.022861   0.354967   0.000000   0.000000
    10  H    0.000005   0.000000  -0.022861   0.354967   0.000000   0.000000
    11  O    0.329080  -0.099306   0.000348   0.000003  -0.001871   0.001415
    12  O    0.329080  -0.099306   0.000348   0.000003  -0.001871   0.003592
    13  O   -0.000174   0.000013   0.336285  -0.098670   0.000000   0.000000
    14  O    0.000315   0.000008  -0.000136  -0.000004   0.000004   0.000000
    15  O   -0.000769  -0.000028  -0.000926  -0.000009   0.000000   0.000000
    16  Rh  -0.099935   0.001582  -0.099315   0.001894   0.000051  -0.000038
    17  Rh  -0.099935   0.001582  -0.099315   0.001894   0.000051   0.001542
    18  O   -0.000133  -0.000005  -0.000123   0.000010   0.000000   0.000000
    19  O   -0.000174   0.000013   0.336285  -0.098670   0.000000   0.000000
    20  C    0.002485  -0.000557  -0.000713  -0.000012  -0.000002   0.000006
    21  O   -0.000133  -0.000005  -0.000123   0.000010   0.000000   0.000000
    22  O    0.000315   0.000008  -0.000136  -0.000004   0.000004  -0.000001
    23  O   -0.000769  -0.000028  -0.000926  -0.000009   0.000000  -0.000001
    24  C   -0.000738  -0.000012   0.002485  -0.000529   0.000000   0.000000
    25  C   -0.000529   0.000028  -0.000012   0.000000  -0.000002   0.000000
    26  C   -0.000012   0.000000  -0.000557   0.000028   0.000000   0.000000
    27  H    0.000000   0.000000  -0.000002  -0.000002   0.000000   0.000000
    28  H    0.000000   0.000000   0.000006   0.000000   0.000000   0.000000
    29  H    0.000000   0.000000   0.000006   0.000000   0.000000   0.000000
    30  H    0.000002   0.000000   0.000000   0.000000   0.000000   0.000000
    31  H    0.000004  -0.000001   0.000000   0.000000   0.000000   0.000000
    32  H    0.000004  -0.000001   0.000000   0.000000   0.000000   0.000000
    33  H    0.000037   0.000000   0.000023   0.000000   0.000000   0.000000
    34  H    0.000034   0.000000   0.000069  -0.000006   0.000000   0.000000
    35  H    0.000034   0.000000   0.000069  -0.000006   0.000000   0.000000
    36  H    0.000037   0.000000   0.000023   0.000000   0.000000   0.000000
              7          8          9         10         11         12
     1  C   -0.022614  -0.000005   0.000005   0.000005   0.329080   0.329080
     2  C    0.354858  -0.000002   0.000000   0.000000  -0.099306  -0.099306
     3  C    0.000005  -0.022041  -0.022861  -0.022861   0.000348   0.000348
     4  C   -0.000001   0.364503   0.354967   0.354967   0.000003   0.000003
     5  H   -0.018944   0.000000   0.000000   0.000000  -0.001871  -0.001871
     6  H   -0.019539   0.000000   0.000000   0.000000   0.001415   0.003592
     7  H    0.459019   0.000000   0.000000   0.000000   0.003592   0.001415
     8  H    0.000000   0.458082  -0.019026  -0.019026   0.000004   0.000004
     9  H    0.000000  -0.019026   0.459364  -0.019432   0.000000  -0.000001
    10  H    0.000000  -0.019026  -0.019432   0.459364  -0.000001   0.000000
    11  O    0.003592   0.000004   0.000000  -0.000001   7.950748  -0.053997
    12  O    0.001415   0.000004  -0.000001   0.000000  -0.053997   7.950748
    13  O    0.000000  -0.001864   0.001416   0.003600  -0.002209   0.000014
    14  O   -0.000001   0.000000   0.000000   0.000000  -0.002196   0.000012
    15  O   -0.000001   0.000000   0.000000  -0.000001  -0.002071  -0.000003
    16  Rh   0.001542   0.000176   0.000038   0.001616   0.206327  -0.030737
    17  Rh  -0.000038   0.000176   0.001616   0.000038  -0.030737   0.206327
    18  O    0.000000   0.000000   0.000000   0.000000  -0.001252  -0.000014
    19  O    0.000000  -0.001864   0.003600   0.001416   0.000014  -0.002209
    20  C    0.000006   0.000000   0.000000   0.000000  -0.000123  -0.000123
    21  O    0.000000   0.000000   0.000000   0.000000  -0.000014  -0.001252
    22  O    0.000000   0.000000   0.000000   0.000000   0.000012  -0.002196
    23  O    0.000000   0.000000  -0.000001   0.000000  -0.000003  -0.002071
    24  C    0.000000   0.000002   0.000004   0.000004  -0.000133  -0.000133
    25  C    0.000000   0.000000   0.000000   0.000000   0.000010   0.000010
    26  C    0.000000   0.000000  -0.000001  -0.000001  -0.000005  -0.000005
    27  H    0.000000   0.000000   0.000000   0.000000   0.000000   0.000000
    28  H    0.000000   0.000000   0.000000   0.000000   0.000000   0.000000
    29  H    0.000000   0.000000   0.000000   0.000000   0.000000   0.000000
    30  H    0.000000   0.000000   0.000000   0.000000   0.000000   0.000000
    31  H    0.000000   0.000000   0.000000   0.000000   0.000000   0.000000
    32  H    0.000000   0.000000   0.000000   0.000000   0.000000   0.000000
    33  H    0.000000   0.000000   0.000000   0.000000   0.000000   0.000003
    34  H    0.000000   0.000000   0.000000   0.000000   0.000000   0.000000
    35  H    0.000000   0.000000   0.000000   0.000000   0.000000   0.000000
    36  H    0.000000   0.000000   0.000000   0.000000   0.000003   0.000000
             13         14         15         16         17         18
     1  C   -0.000174   0.000315  -0.000769  -0.099935  -0.099935  -0.000133
     2  C    0.000013   0.000008  -0.000028   0.001582   0.001582  -0.000005
     3  C    0.336285  -0.000136  -0.000926  -0.099315  -0.099315  -0.000123
     4  C   -0.098670  -0.000004  -0.000009   0.001894   0.001894   0.000010
     5  H    0.000000   0.000004   0.000000   0.000051   0.000051   0.000000
     6  H    0.000000   0.000000   0.000000  -0.000038   0.001542   0.000000
     7  H    0.000000  -0.000001  -0.000001   0.001542  -0.000038   0.000000
     8  H   -0.001864   0.000000   0.000000   0.000176   0.000176   0.000000
     9  H    0.001416   0.000000   0.000000   0.000038   0.001616   0.000000
    10  H    0.003600   0.000000  -0.000001   0.001616   0.000038   0.000000
    11  O   -0.002209  -0.002196  -0.002071   0.206327  -0.030737  -0.001252
    12  O    0.000014   0.000012  -0.000003  -0.030737   0.206327  -0.000014
    13  O    7.959794  -0.001261  -0.003137   0.200467  -0.028014  -0.002196
    14  O   -0.001261   7.959794  -0.003137   0.200467  -0.028014  -0.002209
    15  O   -0.003137  -0.003137   8.138408   0.055090  -0.017551  -0.002071
    16  Rh   0.200467   0.200467   0.055090  16.643588  -0.240778   0.206327
    17  Rh  -0.028014  -0.028014  -0.017551  -0.240778  16.643588  -0.030737
    18  O   -0.002196  -0.002209  -0.002071   0.206327  -0.030737   7.950748
    19  O   -0.055798  -0.000014   0.000000  -0.028014   0.200467   0.000012
    20  C   -0.000136   0.336285  -0.000926  -0.099315  -0.099315   0.000348
    21  O    0.000012   0.000014  -0.000003  -0.030737   0.206327  -0.053997
    22  O   -0.000014  -0.055798   0.000000  -0.028014   0.200467   0.000014
    23  O    0.000000   0.000000   0.000000  -0.017551   0.055090  -0.000003
    24  C    0.000315  -0.000174  -0.000769  -0.099935  -0.099935   0.329080
    25  C   -0.000004  -0.098670  -0.000009   0.001894   0.001894   0.000003
    26  C    0.000008   0.000013  -0.000028   0.001582   0.001582  -0.099306
    27  H    0.000004   0.000000   0.000000   0.000051   0.000051  -0.001871
    28  H   -0.000001   0.000000  -0.000001   0.001542  -0.000038   0.003592
    29  H    0.000000   0.000000   0.000000  -0.000038   0.001542   0.001415
    30  H    0.000000  -0.001864   0.000000   0.000176   0.000176   0.000004
    31  H    0.000000   0.003600  -0.000001   0.001616   0.000038  -0.000001
    32  H    0.000000   0.001416   0.000000   0.000038   0.001616   0.000000
    33  H    0.000000   0.000000   0.000000   0.000705  -0.004567   0.000000
    34  H    0.000000   0.000000   0.000000   0.000705  -0.004567   0.000000
    35  H    0.000452   0.000084   0.260544  -0.004567   0.000705   0.000003
    36  H    0.000084   0.000452   0.260544  -0.004567   0.000705   0.000000
             19         20         21         22         23         24
     1  C   -0.000174   0.002485  -0.000133   0.000315  -0.000769  -0.000738
     2  C    0.000013  -0.000557  -0.000005   0.000008  -0.000028  -0.000012
     3  C    0.336285  -0.000713  -0.000123  -0.000136  -0.000926   0.002485
     4  C   -0.098670  -0.000012   0.000010  -0.000004  -0.000009  -0.000529
     5  H    0.000000  -0.000002   0.000000   0.000004   0.000000   0.000000
     6  H    0.000000   0.000006   0.000000  -0.000001  -0.000001   0.000000
     7  H    0.000000   0.000006   0.000000   0.000000   0.000000   0.000000
     8  H   -0.001864   0.000000   0.000000   0.000000   0.000000   0.000002
     9  H    0.003600   0.000000   0.000000   0.000000  -0.000001   0.000004
    10  H    0.001416   0.000000   0.000000   0.000000   0.000000   0.000004
    11  O    0.000014  -0.000123  -0.000014   0.000012  -0.000003  -0.000133
    12  O   -0.002209  -0.000123  -0.001252  -0.002196  -0.002071  -0.000133
    13  O   -0.055798  -0.000136   0.000012  -0.000014   0.000000   0.000315
    14  O   -0.000014   0.336285   0.000014  -0.055798   0.000000  -0.000174
    15  O    0.000000  -0.000926  -0.000003   0.000000   0.000000  -0.000769
    16  Rh  -0.028014  -0.099315  -0.030737  -0.028014  -0.017551  -0.099935
    17  Rh   0.200467  -0.099315   0.206327   0.200467   0.055090  -0.099935
    18  O    0.000012   0.000348  -0.053997   0.000014  -0.000003   0.329080
    19  O    7.959794  -0.000136  -0.002196  -0.001261  -0.003137   0.000315
    20  C   -0.000136   4.890411   0.000348   0.336285  -0.000926   0.002503
    21  O   -0.002196   0.000348   7.950748  -0.002209  -0.002071   0.329080
    22  O   -0.001261   0.336285  -0.002209   7.959794  -0.003137  -0.000174
    23  O   -0.003137  -0.000926  -0.002071  -0.003137   8.138408  -0.000769
    24  C    0.000315   0.002503   0.329080  -0.000174  -0.000769   4.915428
    25  C   -0.000004   0.258281   0.000003  -0.098670  -0.000009  -0.000567
    26  C    0.000008  -0.000517  -0.099306   0.000013  -0.000028   0.255473
    27  H    0.000004   0.000002  -0.001871   0.000000   0.000000  -0.021967
    28  H    0.000000   0.000005   0.001415   0.000000   0.000000  -0.022614
    29  H   -0.000001   0.000005   0.003592   0.000000  -0.000001  -0.022614
    30  H    0.000000  -0.022041   0.000004  -0.001864   0.000000  -0.000005
    31  H    0.000000  -0.022861   0.000000   0.001416   0.000000   0.000005
    32  H    0.000000  -0.022861  -0.000001   0.003600  -0.000001   0.000005
    33  H    0.000084   0.000069   0.000000   0.000452   0.260544   0.000034
    34  H    0.000452   0.000023   0.000003   0.000084   0.260544   0.000037
    35  H    0.000000   0.000023   0.000000   0.000000   0.000000   0.000037
    36  H    0.000000   0.000069   0.000000   0.000000   0.000000   0.000034
             25         26         27         28         29         30
     1  C   -0.000529  -0.000012   0.000000   0.000000   0.000000   0.000002
     2  C    0.000028   0.000000   0.000000   0.000000   0.000000   0.000000
     3  C   -0.000012  -0.000557  -0.000002   0.000006   0.000006   0.000000
     4  C    0.000000   0.000028  -0.000002   0.000000   0.000000   0.000000
     5  H   -0.000002   0.000000   0.000000   0.000000   0.000000   0.000000
     6  H    0.000000   0.000000   0.000000   0.000000   0.000000   0.000000
     7  H    0.000000   0.000000   0.000000   0.000000   0.000000   0.000000
     8  H    0.000000   0.000000   0.000000   0.000000   0.000000   0.000000
     9  H    0.000000  -0.000001   0.000000   0.000000   0.000000   0.000000
    10  H    0.000000  -0.000001   0.000000   0.000000   0.000000   0.000000
    11  O    0.000010  -0.000005   0.000000   0.000000   0.000000   0.000000
    12  O    0.000010  -0.000005   0.000000   0.000000   0.000000   0.000000
    13  O   -0.000004   0.000008   0.000004  -0.000001   0.000000   0.000000
    14  O   -0.098670   0.000013   0.000000   0.000000   0.000000  -0.001864
    15  O   -0.000009  -0.000028   0.000000  -0.000001   0.000000   0.000000
    16  Rh   0.001894   0.001582   0.000051   0.001542  -0.000038   0.000176
    17  Rh   0.001894   0.001582   0.000051  -0.000038   0.001542   0.000176
    18  O    0.000003  -0.099306  -0.001871   0.003592   0.001415   0.000004
    19  O   -0.000004   0.000008   0.000004   0.000000  -0.000001   0.000000
    20  C    0.258281  -0.000517   0.000002   0.000005   0.000005  -0.022041
    21  O    0.000003  -0.099306  -0.001871   0.001415   0.003592   0.000004
    22  O   -0.098670   0.000013   0.000000   0.000000   0.000000  -0.001864
    23  O   -0.000009  -0.000028   0.000000   0.000000  -0.000001   0.000000
    24  C   -0.000567   0.255473  -0.021967  -0.022614  -0.022614  -0.000005
    25  C    5.615853   0.000028   0.000000  -0.000001  -0.000001   0.364503
    26  C    0.000028   5.620453   0.364698   0.354858   0.354858  -0.000002
    27  H    0.000000   0.364698   0.459626  -0.018944  -0.018944   0.000000
    28  H   -0.000001   0.354858  -0.018944   0.459019  -0.019539   0.000000
    29  H   -0.000001   0.354858  -0.018944  -0.019539   0.459019   0.000000
    30  H    0.364503  -0.000002   0.000000   0.000000   0.000000   0.458082
    31  H    0.354967   0.000000   0.000000   0.000000   0.000000  -0.019026
    32  H    0.354967   0.000000   0.000000   0.000000   0.000000  -0.019026
    33  H   -0.000006   0.000000   0.000000   0.000000   0.000000   0.000000
    34  H    0.000000   0.000000   0.000000   0.000000   0.000000   0.000000
    35  H    0.000000   0.000000   0.000000   0.000000   0.000000   0.000000
    36  H   -0.000006   0.000000   0.000000   0.000000   0.000000   0.000000
             31         32         33         34         35         36
     1  C    0.000004   0.000004   0.000037   0.000034   0.000034   0.000037
     2  C   -0.000001  -0.000001   0.000000   0.000000   0.000000   0.000000
     3  C    0.000000   0.000000   0.000023   0.000069   0.000069   0.000023
     4  C    0.000000   0.000000   0.000000  -0.000006  -0.000006   0.000000
     5  H    0.000000   0.000000   0.000000   0.000000   0.000000   0.000000
     6  H    0.000000   0.000000   0.000000   0.000000   0.000000   0.000000
     7  H    0.000000   0.000000   0.000000   0.000000   0.000000   0.000000
     8  H    0.000000   0.000000   0.000000   0.000000   0.000000   0.000000
     9  H    0.000000   0.000000   0.000000   0.000000   0.000000   0.000000
    10  H    0.000000   0.000000   0.000000   0.000000   0.000000   0.000000
    11  O    0.000000   0.000000   0.000000   0.000000   0.000000   0.000003
    12  O    0.000000   0.000000   0.000003   0.000000   0.000000   0.000000
    13  O    0.000000   0.000000   0.000000   0.000000   0.000452   0.000084
    14  O    0.003600   0.001416   0.000000   0.000000   0.000084   0.000452
    15  O   -0.000001   0.000000   0.000000   0.000000   0.260544   0.260544
    16  Rh   0.001616   0.000038   0.000705   0.000705  -0.004567  -0.004567
    17  Rh   0.000038   0.001616  -0.004567  -0.004567   0.000705   0.000705
    18  O   -0.000001   0.000000   0.000000   0.000000   0.000003   0.000000
    19  O    0.000000   0.000000   0.000084   0.000452   0.000000   0.000000
    20  C   -0.022861  -0.022861   0.000069   0.000023   0.000023   0.000069
    21  O    0.000000  -0.000001   0.000000   0.000003   0.000000   0.000000
    22  O    0.001416   0.003600   0.000452   0.000084   0.000000   0.000000
    23  O    0.000000  -0.000001   0.260544   0.260544   0.000000   0.000000
    24  C    0.000005   0.000005   0.000034   0.000037   0.000037   0.000034
    25  C    0.354967   0.354967  -0.000006   0.000000   0.000000  -0.000006
    26  C    0.000000   0.000000   0.000000   0.000000   0.000000   0.000000
    27  H    0.000000   0.000000   0.000000   0.000000   0.000000   0.000000
    28  H    0.000000   0.000000   0.000000   0.000000   0.000000   0.000000
    29  H    0.000000   0.000000   0.000000   0.000000   0.000000   0.000000
    30  H   -0.019026  -0.019026   0.000000   0.000000   0.000000   0.000000
    31  H    0.459364  -0.019432   0.000000   0.000000   0.000000   0.000000
    32  H   -0.019432   0.459364   0.000000   0.000000   0.000000   0.000000
    33  H    0.000000   0.000000   0.358472  -0.029061   0.000000   0.000000
    34  H    0.000000   0.000000  -0.029061   0.358472   0.000000   0.000000
    35  H    0.000000   0.000000   0.000000   0.000000   0.358472  -0.029061
    36  H    0.000000   0.000000   0.000000   0.000000  -0.029061   0.358472
 Mulliken atomic charges:
              1
     1  C    0.436228
     2  C   -0.753835
     3  C    0.443409
     4  C   -0.753951
     5  H    0.239165
     6  H    0.240700
     7  H    0.240700
     8  H    0.240883
     9  H    0.240309
    10  H    0.240309
    11  O   -0.297638
    12  O   -0.297638
    13  O   -0.308989
    14  O   -0.308989
    15  O   -0.683148
    16  Rh   0.256066
    17  Rh   0.256065
    18  O   -0.297638
    19  O   -0.308989
    20  C    0.443409
    21  O   -0.297638
    22  O   -0.308989
    23  O   -0.683149
    24  C    0.436228
    25  C   -0.753951
    26  C   -0.753835
    27  H    0.239165
    28  H    0.240700
    29  H    0.240700
    30  H    0.240883
    31  H    0.240309
    32  H    0.240309
    33  H    0.413211
    34  H    0.413211
    35  H    0.413211
    36  H    0.413211
 Sum of Mulliken atomic charges =   0.00000
 Mulliken charges with hydrogens summed into heavy atoms:
              1
     1  C    0.436228
     2  C   -0.033271
     3  C    0.443409
     4  C   -0.032451
    11  O   -0.297638
    12  O   -0.297638
    13  O   -0.308989
    14  O   -0.308989
    15  O    0.143274
    16  Rh   0.256066
    17  Rh   0.256065
    18  O   -0.297638
    19  O   -0.308989
    20  C    0.443409
    21  O   -0.297638
    22  O   -0.308989
    23  O    0.143274
    24  C    0.436228
    25  C   -0.032451
    26  C   -0.033271
 Sum of Mulliken charges with hydrogens summed into heavy atoms =   0.00000
 Electronic spatial extent (au):  <R**2>=           5767.4842
 Charge=              0.0000 electrons
 Dipole moment (field-independent basis, Debye):
    X=              0.0000    Y=              0.0000    Z=              0.0000  Tot=              0.0000
 Quadrupole moment (field-independent basis, Debye-Ang):
   XX=           -126.5970   YY=           -134.2239   ZZ=           -112.5803
   XY=              0.0707   XZ=              0.0000   YZ=              0.0000
 Traceless Quadrupole moment (field-independent basis, Debye-Ang):
   XX=             -2.1300   YY=             -9.7569   ZZ=             11.8868
   XY=              0.0707   XZ=              0.0000   YZ=              0.0000
 Octapole moment (field-independent basis, Debye-Ang**2):
  XXX=              0.0000  YYY=              0.0000  ZZZ=              0.0000  XYY=              0.0000
  XXY=              0.0000  XXZ=              0.0000  XZZ=              0.0000  YZZ=              0.0000
  YYZ=              0.0000  XYZ=              0.0000
 Hexadecapole moment (field-independent basis, Debye-Ang**3):
 XXXX=          -2398.2806 YYYY=          -2407.9997 ZZZZ=           -801.4194 XXXY=              3.4029
 XXXZ=              0.0000 YYYX=             -3.4321 YYYZ=              0.0000 ZZZX=              0.0000
 ZZZY=             -0.0005 XXYY=           -883.6006 XXZZ=           -731.5916 YYZZ=           -846.1379
 XXYZ=              0.0000 YYXZ=              0.0000 ZZXY=              0.5763
 N-N= 2.357743373204D+03 E-N=-7.687369369803D+03  KE= 1.137545890634D+03
 No NMR shielding tensors so no spin-rotation constants.
 Leave Link  601 at Sun Nov 24 22:23:13 2013, MaxMem=   33554432 cpu:       0.8
 (Enter /net/cottusp/opt/gaussian/g09revA02_amd64/g09/l9999.exe)

 Test job not archived.
 1\1\GINC-CASEGROUP1\FOpt\RBP86\LANL2DZ\C8H16O10Rh2\CASE\24-Nov-2013\0\
 \#p BP86/LanL2DZ Opt=VTight Freq=(HPModes,Raman) Int=Ultrafine nosymm 
 iop(7/33=1)\\di-rhodium tetra-acetate dihydrate\\0,1\C,-0.0086361664,2
 .6794400028,-0.0000000182\C,-0.0610337258,4.1977979812,-0.0000002707\C
 ,2.6802613005,0.0091186294,-0.0000000192\C,4.1982692409,0.062469407,-0
 .0000000018\H,-1.1167709095,4.5282410395,-0.000000459\H,0.4246701123,4
 .5933941399,0.9062344153\H,0.4246703383,4.5933938308,-0.9062349886\H,4
 .5282898353,1.1183306025,0.0000001911\H,4.594794217,-0.4236067383,0.90
 56184508\H,4.5947942308,-0.4236064241,-0.9056186106\O,-0.0000192482,2.
 0763787755,-1.167755549\O,-0.0000191859,2.0763790021,1.1677554448\O,2.
 0758198208,0.0003001734,-1.1672075164\O,-2.0758198143,-0.0003005507,-1
 .1672074992\O,-0.0000000119,0.0000000238,-3.5001956339\Rh,0.0000000071
 ,-0.0000001247,-1.2251100943\Rh,-0.000000002,0.0000001229,1.2251100834
 \O,0.0000192969,-2.0763789929,-1.1677554767\O,2.0758198174,0.000300403
 1,1.1672074863\C,-2.6802612954,-0.0091186289,-0.0000000014\O,0.0000191
 336,-2.0763787882,1.1677555172\O,-2.0758198138,-0.000300026,1.16720750
 36\O,0.0000000171,-0.0000000233,3.5001956403\C,0.0086361625,-2.6794400
 046,-0.0000000188\C,-4.1982692358,-0.0624694045,0.0000000382\C,0.06103
 37149,-4.1977979833,0.0000002452\H,1.1167708971,-4.5282410462,0.000000
 5372\H,-0.4246700414,-4.5933941437,-0.9062344798\H,-0.4246704347,-4.59
 33938268,0.9062349242\H,-4.5282898317,-1.1183305996,0.0000000162\H,-4.
 5947942485,0.4236066127,-0.9056184624\H,-4.5947941879,0.4236065557,0.9
 05618599\H,-0.8215505931,-0.0047639733,4.0373442959\H,0.8215506456,0.0
 047623544,4.0373442817\H,0.8215505878,0.0047639787,-4.0373442922\H,-0.
 8215506296,-0.0047623564,-4.0373442782\\Version=AM64L-G09RevA.02\HF=-1
 286.1063268\RMSD=5.706e-09\RMSF=6.578e-08\Dipole=0.,0.,-0.0000005\Quad
 rupole=-1.5835705,-7.2539905,8.837561,0.0525307,0.0000005,-0.0000271\P
 G=C01 [X(C8H16O10Rh2)]\\@


 WE MIGHT AS WELL ATTEMPT TO INTRODUCE A NEW PLANET 
 INTO THE SOLAR SYSTEM, OR TO ANNIHILATE ONE ALREADYIN EXISTENCE, 
 AS TO CREATE OR DESTROY A PARTICLE OF HYDROGEN.
 ALL THE CHANGES WE CAN PRODUCE CONSIST IN SEPARATING PARTICLES
 THAT ARE IN A STATE OF ... COMBINATION, AND JOINING 
 THOSE THAT WERE PREVIOUSLY AT A DISTANCE.

                                    -- JOHN DALTON, 1810
 Leave Link 9999 at Sun Nov 24 22:23:13 2013, MaxMem=   33554432 cpu:       0.1
 Job cpu time:  0 days  0 hours 38 minutes 17.2 seconds.
 File lengths (MBytes):  RWF=     49 Int=      0 D2E=      0 Chk=      6 Scr=      1
 Normal termination of Gaussian 09 at Sun Nov 24 22:23:13 2013.
 (Enter /net/cottusp/opt/gaussian/g09revA02_amd64/g09/l1.exe)
 Link1:  Proceeding to internal job step number  2.
 ----------------------------------------------------------------------
 #P Geom=AllCheck Guess=TCheck SCRF=Check Test GenChk RBP86/LANL2DZ Fre
 q
 ----------------------------------------------------------------------
 1/7=1,10=4,29=7,30=1,38=1,40=1/1,3;
 2/12=2,15=1,40=1/2;
 3/5=6,6=3,11=2,14=-4,16=1,25=1,30=1,70=2,71=2,74=404,75=-5,116=1/1,2,3;
 4/5=101/1;
 5/5=2,98=1/2;
 8/6=4,10=90,11=11/1;
 10/13=10,15=4,31=1/2;
 11/6=3,8=1,9=11,15=111,16=1,31=1/1,2,10;
 10/6=1,31=1/2;
 6/7=2,8=2,9=2,10=2,18=1,28=1/1;
 7/8=11,10=1,25=1,30=1/1,2,3,16;
 1/7=1,10=4,30=1/3;
 99//99;
 Leave Link    1 at Sun Nov 24 22:23:14 2013, MaxMem=          0 cpu:       0.1
 (Enter /net/cottusp/opt/gaussian/g09revA02_amd64/g09/l101.exe)
 ----------------------------------
 di-rhodium tetra-acetate dihydrate
 ----------------------------------
 Redundant internal coordinates taken from checkpoint file:
 rhacf.chk
 Charge =  0 Multiplicity = 1
 C,0,-0.0086361664,2.6794400028,-0.0000000182
 C,0,-0.0610337258,4.1977979812,-0.0000002707
 C,0,2.6802613005,0.0091186294,-0.0000000192
 C,0,4.1982692409,0.062469407,-0.0000000018
 H,0,-1.1167709095,4.5282410395,-0.000000459
 H,0,0.4246701123,4.5933941399,0.9062344153
 H,0,0.4246703383,4.5933938308,-0.9062349886
 H,0,4.5282898353,1.1183306025,0.0000001911
 H,0,4.594794217,-0.4236067383,0.9056184508
 H,0,4.5947942308,-0.4236064241,-0.9056186106
 O,0,-0.0000192482,2.0763787755,-1.167755549
 O,0,-0.0000191859,2.0763790021,1.1677554448
 O,0,2.0758198208,0.0003001734,-1.1672075164
 O,0,-2.0758198143,-0.0003005507,-1.1672074992
 O,0,-0.0000000119,0.0000000238,-3.5001956339
 Rh,0,0.0000000071,-0.0000001247,-1.2251100943
 Rh,0,-0.000000002,0.0000001229,1.2251100834
 O,0,0.0000192969,-2.0763789929,-1.1677554767
 O,0,2.0758198174,0.0003004031,1.1672074863
 C,0,-2.6802612954,-0.0091186289,-0.0000000014
 O,0,0.0000191336,-2.0763787882,1.1677555172
 O,0,-2.0758198138,-0.000300026,1.1672075036
 O,0,0.0000000171,-0.0000000233,3.5001956403
 C,0,0.0086361625,-2.6794400046,-0.0000000188
 C,0,-4.1982692358,-0.0624694045,0.0000000382
 C,0,0.0610337149,-4.1977979833,0.0000002452
 H,0,1.1167708971,-4.5282410462,0.0000005372
 H,0,-0.4246700414,-4.5933941437,-0.9062344798
 H,0,-0.4246704347,-4.5933938268,0.9062349242
 H,0,-4.5282898317,-1.1183305996,0.0000000162
 H,0,-4.5947942485,0.4236066127,-0.9056184624
 H,0,-4.5947941879,0.4236065557,0.905618599
 H,0,-0.8215505931,-0.0047639733,4.0373442959
 H,0,0.8215506456,0.0047623544,4.0373442817
 H,0,0.8215505878,0.0047639787,-4.0373442922
 H,0,-0.8215506296,-0.0047623564,-4.0373442782
 Recover connectivity data from disk.
                    Isotopes and Nuclear Properties:
 (Nuclear quadrupole moments (NQMom) in fm**2, nuclear magnetic moments (NMagM)
  in nuclear magnetons)

  Atom         1           2           3           4           5           6           7           8           9          10
 IAtWgt=          12          12          12          12           1           1           1           1           1           1
 AtmWgt=  12.0000000  12.0000000  12.0000000  12.0000000   1.0078250   1.0078250   1.0078250   1.0078250   1.0078250   1.0078250
 NucSpn=           0           0           0           0           1           1           1           1           1           1
 AtZEff=  -3.6000000  -3.6000000  -3.6000000  -3.6000000  -1.0000000  -1.0000000  -1.0000000  -1.0000000  -1.0000000  -1.0000000
 NQMom=    0.0000000   0.0000000   0.0000000   0.0000000   0.0000000   0.0000000   0.0000000   0.0000000   0.0000000   0.0000000
 NMagM=    0.0000000   0.0000000   0.0000000   0.0000000   2.7928460   2.7928460   2.7928460   2.7928460   2.7928460   2.7928460

  Atom        11          12          13          14          15          16          17          18          19          20
 IAtWgt=          16          16          16          16          16         103         103          16          16          12
 AtmWgt=  15.9949146  15.9949146  15.9949146  15.9949146  15.9949146 102.9048000 102.9048000  15.9949146  15.9949146  12.0000000
 NucSpn=           0           0           0           0           0           1           1           0           0           0
 AtZEff=  -5.6000000  -5.6000000  -5.6000000  -5.6000000  -5.6000000-229.5000000-229.5000000  -5.6000000  -5.6000000  -3.6000000
 NQMom=    0.0000000   0.0000000   0.0000000   0.0000000   0.0000000   0.0000000   0.0000000   0.0000000   0.0000000   0.0000000
 NMagM=    0.0000000   0.0000000   0.0000000   0.0000000   0.0000000  -0.0884000  -0.0884000   0.0000000   0.0000000   0.0000000

  Atom        21          22          23          24          25          26          27          28          29          30
 IAtWgt=          16          16          16          12          12          12           1           1           1           1
 AtmWgt=  15.9949146  15.9949146  15.9949146  12.0000000  12.0000000  12.0000000   1.0078250   1.0078250   1.0078250   1.0078250
 NucSpn=           0           0           0           0           0           0           1           1           1           1
 AtZEff=  -5.6000000  -5.6000000  -5.6000000  -3.6000000  -3.6000000  -3.6000000  -1.0000000  -1.0000000  -1.0000000  -1.0000000
 NQMom=    0.0000000   0.0000000   0.0000000   0.0000000   0.0000000   0.0000000   0.0000000   0.0000000   0.0000000   0.0000000
 NMagM=    0.0000000   0.0000000   0.0000000   0.0000000   0.0000000   0.0000000   2.7928460   2.7928460   2.7928460   2.7928460

  Atom        31          32          33          34          35          36
 IAtWgt=           1           1           1           1           1           1
 AtmWgt=   1.0078250   1.0078250   1.0078250   1.0078250   1.0078250   1.0078250
 NucSpn=           1           1           1           1           1           1
 AtZEff=  -1.0000000  -1.0000000  -1.0000000  -1.0000000  -1.0000000  -1.0000000
 NQMom=    0.0000000   0.0000000   0.0000000   0.0000000   0.0000000   0.0000000
 NMagM=    2.7928460   2.7928460   2.7928460   2.7928460   2.7928460   2.7928460
 Leave Link  101 at Sun Nov 24 22:23:14 2013, MaxMem=   33554432 cpu:       0.1
 (Enter /net/cottusp/opt/gaussian/g09revA02_amd64/g09/l103.exe)

 GradGradGradGradGradGradGradGradGradGradGradGradGradGradGradGradGradGrad
 Berny optimization.
 Initialization pass.
                           ----------------------------
                           !    Initial Parameters    !
                           ! (Angstroms and Degrees)  !
 --------------------------                            --------------------------
 ! Name  Definition              Value          Derivative Info.                !
 --------------------------------------------------------------------------------
 ! R1    R(1,2)                  1.5193         calculate D2E/DX2 analytically  !
 ! R2    R(1,11)                 1.3143         calculate D2E/DX2 analytically  !
 ! R3    R(1,12)                 1.3143         calculate D2E/DX2 analytically  !
 ! R4    R(2,5)                  1.1062         calculate D2E/DX2 analytically  !
 ! R5    R(2,6)                  1.1017         calculate D2E/DX2 analytically  !
 ! R6    R(2,7)                  1.1017         calculate D2E/DX2 analytically  !
 ! R7    R(3,4)                  1.5189         calculate D2E/DX2 analytically  !
 ! R8    R(3,13)                 1.3145         calculate D2E/DX2 analytically  !
 ! R9    R(3,19)                 1.3145         calculate D2E/DX2 analytically  !
 ! R10   R(4,8)                  1.1062         calculate D2E/DX2 analytically  !
 ! R11   R(4,9)                  1.1017         calculate D2E/DX2 analytically  !
 ! R12   R(4,10)                 1.1017         calculate D2E/DX2 analytically  !
 ! R13   R(11,16)                2.0772         calculate D2E/DX2 analytically  !
 ! R14   R(12,17)                2.0772         calculate D2E/DX2 analytically  !
 ! R15   R(13,16)                2.0766         calculate D2E/DX2 analytically  !
 ! R16   R(14,16)                2.0766         calculate D2E/DX2 analytically  !
 ! R17   R(14,20)                1.3145         calculate D2E/DX2 analytically  !
 ! R18   R(15,16)                2.2751         calculate D2E/DX2 analytically  !
 ! R19   R(15,35)                0.9816         calculate D2E/DX2 analytically  !
 ! R20   R(15,36)                0.9816         calculate D2E/DX2 analytically  !
 ! R21   R(16,17)                2.4502         calculate D2E/DX2 analytically  !
 ! R22   R(16,18)                2.0772         calculate D2E/DX2 analytically  !
 ! R23   R(17,19)                2.0766         calculate D2E/DX2 analytically  !
 ! R24   R(17,21)                2.0772         calculate D2E/DX2 analytically  !
 ! R25   R(17,22)                2.0766         calculate D2E/DX2 analytically  !
 ! R26   R(17,23)                2.2751         calculate D2E/DX2 analytically  !
 ! R27   R(18,24)                1.3143         calculate D2E/DX2 analytically  !
 ! R28   R(20,22)                1.3145         calculate D2E/DX2 analytically  !
 ! R29   R(20,25)                1.5189         calculate D2E/DX2 analytically  !
 ! R30   R(21,24)                1.3143         calculate D2E/DX2 analytically  !
 ! R31   R(23,33)                0.9816         calculate D2E/DX2 analytically  !
 ! R32   R(23,34)                0.9816         calculate D2E/DX2 analytically  !
 ! R33   R(24,26)                1.5193         calculate D2E/DX2 analytically  !
 ! R34   R(25,30)                1.1062         calculate D2E/DX2 analytically  !
 ! R35   R(25,31)                1.1017         calculate D2E/DX2 analytically  !
 ! R36   R(25,32)                1.1017         calculate D2E/DX2 analytically  !
 ! R37   R(26,27)                1.1062         calculate D2E/DX2 analytically  !
 ! R38   R(26,28)                1.1017         calculate D2E/DX2 analytically  !
 ! R39   R(26,29)                1.1017         calculate D2E/DX2 analytically  !
 ! A1    A(2,1,11)             117.3094         calculate D2E/DX2 analytically  !
 ! A2    A(2,1,12)             117.3094         calculate D2E/DX2 analytically  !
 ! A3    A(11,1,12)            125.3691         calculate D2E/DX2 analytically  !
 ! A4    A(1,2,5)              109.3564         calculate D2E/DX2 analytically  !
 ! A5    A(1,2,6)              110.1006         calculate D2E/DX2 analytically  !
 ! A6    A(1,2,7)              110.1006         calculate D2E/DX2 analytically  !
 ! A7    A(5,2,6)              108.2697         calculate D2E/DX2 analytically  !
 ! A8    A(5,2,7)              108.2697         calculate D2E/DX2 analytically  !
 ! A9    A(6,2,7)              110.6928         calculate D2E/DX2 analytically  !
 ! A10   A(4,3,13)             117.3737         calculate D2E/DX2 analytically  !
 ! A11   A(4,3,19)             117.3737         calculate D2E/DX2 analytically  !
 ! A12   A(13,3,19)            125.24           calculate D2E/DX2 analytically  !
 ! A13   A(3,4,8)              109.37           calculate D2E/DX2 analytically  !
 ! A14   A(3,4,9)              110.1339         calculate D2E/DX2 analytically  !
 ! A15   A(3,4,10)             110.1339         calculate D2E/DX2 analytically  !
 ! A16   A(8,4,9)              108.2855         calculate D2E/DX2 analytically  !
 ! A17   A(8,4,10)             108.2855         calculate D2E/DX2 analytically  !
 ! A18   A(9,4,10)             110.5814         calculate D2E/DX2 analytically  !
 ! A19   A(1,11,16)            118.8946         calculate D2E/DX2 analytically  !
 ! A20   A(1,12,17)            118.8946         calculate D2E/DX2 analytically  !
 ! A21   A(3,13,16)            118.9746         calculate D2E/DX2 analytically  !
 ! A22   A(16,14,20)           118.9746         calculate D2E/DX2 analytically  !
 ! A23   A(16,15,35)           123.1771         calculate D2E/DX2 analytically  !
 ! A24   A(16,15,36)           123.1771         calculate D2E/DX2 analytically  !
 ! A25   A(35,15,36)           113.6457         calculate D2E/DX2 analytically  !
 ! A26   A(11,16,13)            89.9481         calculate D2E/DX2 analytically  !
 ! A27   A(11,16,14)            89.9636         calculate D2E/DX2 analytically  !
 ! A28   A(11,16,15)            91.5822         calculate D2E/DX2 analytically  !
 ! A29   A(11,16,17)            88.4178         calculate D2E/DX2 analytically  !
 ! A30   A(13,16,15)            91.5978         calculate D2E/DX2 analytically  !
 ! A31   A(13,16,17)            88.4022         calculate D2E/DX2 analytically  !
 ! A32   A(13,16,18)            89.9636         calculate D2E/DX2 analytically  !
 ! A33   A(14,16,15)            91.5978         calculate D2E/DX2 analytically  !
 ! A34   A(14,16,17)            88.4022         calculate D2E/DX2 analytically  !
 ! A35   A(14,16,18)            89.9481         calculate D2E/DX2 analytically  !
 ! A36   A(15,16,18)            91.5822         calculate D2E/DX2 analytically  !
 ! A37   A(17,16,18)            88.4178         calculate D2E/DX2 analytically  !
 ! A38   A(12,17,16)            88.4178         calculate D2E/DX2 analytically  !
 ! A39   A(12,17,19)            89.9481         calculate D2E/DX2 analytically  !
 ! A40   A(12,17,22)            89.9636         calculate D2E/DX2 analytically  !
 ! A41   A(12,17,23)            91.5823         calculate D2E/DX2 analytically  !
 ! A42   A(16,17,19)            88.4022         calculate D2E/DX2 analytically  !
 ! A43   A(16,17,21)            88.4177         calculate D2E/DX2 analytically  !
 ! A44   A(16,17,22)            88.4022         calculate D2E/DX2 analytically  !
 ! A45   A(19,17,21)            89.9636         calculate D2E/DX2 analytically  !
 ! A46   A(19,17,23)            91.5978         calculate D2E/DX2 analytically  !
 ! A47   A(21,17,22)            89.9481         calculate D2E/DX2 analytically  !
 ! A48   A(21,17,23)            91.5822         calculate D2E/DX2 analytically  !
 ! A49   A(22,17,23)            91.5978         calculate D2E/DX2 analytically  !
 ! A50   A(16,18,24)           118.8946         calculate D2E/DX2 analytically  !
 ! A51   A(3,19,17)            118.9746         calculate D2E/DX2 analytically  !
 ! A52   A(14,20,22)           125.24           calculate D2E/DX2 analytically  !
 ! A53   A(14,20,25)           117.3737         calculate D2E/DX2 analytically  !
 ! A54   A(22,20,25)           117.3737         calculate D2E/DX2 analytically  !
 ! A55   A(17,21,24)           118.8946         calculate D2E/DX2 analytically  !
 ! A56   A(17,22,20)           118.9746         calculate D2E/DX2 analytically  !
 ! A57   A(17,23,33)           123.1771         calculate D2E/DX2 analytically  !
 ! A58   A(17,23,34)           123.1771         calculate D2E/DX2 analytically  !
 ! A59   A(33,23,34)           113.6457         calculate D2E/DX2 analytically  !
 ! A60   A(18,24,21)           125.3691         calculate D2E/DX2 analytically  !
 ! A61   A(18,24,26)           117.3094         calculate D2E/DX2 analytically  !
 ! A62   A(21,24,26)           117.3094         calculate D2E/DX2 analytically  !
 ! A63   A(20,25,30)           109.37           calculate D2E/DX2 analytically  !
 ! A64   A(20,25,31)           110.1339         calculate D2E/DX2 analytically  !
 ! A65   A(20,25,32)           110.1339         calculate D2E/DX2 analytically  !
 ! A66   A(30,25,31)           108.2855         calculate D2E/DX2 analytically  !
 ! A67   A(30,25,32)           108.2855         calculate D2E/DX2 analytically  !
 ! A68   A(31,25,32)           110.5814         calculate D2E/DX2 analytically  !
 ! A69   A(24,26,27)           109.3564         calculate D2E/DX2 analytically  !
 ! A70   A(24,26,28)           110.1006         calculate D2E/DX2 analytically  !
 ! A71   A(24,26,29)           110.1006         calculate D2E/DX2 analytically  !
 ! A72   A(27,26,28)           108.2697         calculate D2E/DX2 analytically  !
 ! A73   A(27,26,29)           108.2697         calculate D2E/DX2 analytically  !
 ! A74   A(28,26,29)           110.6928         calculate D2E/DX2 analytically  !
 ! D1    D(11,1,2,5)            89.4021         calculate D2E/DX2 analytically  !
 ! D2    D(11,1,2,6)          -151.7566         calculate D2E/DX2 analytically  !
 ! D3    D(11,1,2,7)           -29.4393         calculate D2E/DX2 analytically  !
 ! D4    D(12,1,2,5)           -89.4021         calculate D2E/DX2 analytically  !
 ! D5    D(12,1,2,6)            29.4393         calculate D2E/DX2 analytically  !
 ! D6    D(12,1,2,7)           151.7566         calculate D2E/DX2 analytically  !
 ! D7    D(2,1,11,16)         -177.7628         calculate D2E/DX2 analytically  !
 ! D8    D(12,1,11,16)           0.9341         calculate D2E/DX2 analytically  !
 ! D9    D(2,1,12,17)          177.7628         calculate D2E/DX2 analytically  !
 ! D10   D(11,1,12,17)          -0.9341         calculate D2E/DX2 analytically  !
 ! D11   D(13,3,4,8)            89.3905         calculate D2E/DX2 analytically  !
 ! D12   D(13,3,4,9)          -151.7204         calculate D2E/DX2 analytically  !
 ! D13   D(13,3,4,10)          -29.4986         calculate D2E/DX2 analytically  !
 ! D14   D(19,3,4,8)           -89.3905         calculate D2E/DX2 analytically  !
 ! D15   D(19,3,4,9)            29.4986         calculate D2E/DX2 analytically  !
 ! D16   D(19,3,4,10)          151.7204         calculate D2E/DX2 analytically  !
 ! D17   D(4,3,13,16)         -177.729          calculate D2E/DX2 analytically  !
 ! D18   D(19,3,13,16)           0.9456         calculate D2E/DX2 analytically  !
 ! D19   D(4,3,19,17)          177.729          calculate D2E/DX2 analytically  !
 ! D20   D(13,3,19,17)          -0.9456         calculate D2E/DX2 analytically  !
 ! D21   D(1,11,16,13)         -88.8318         calculate D2E/DX2 analytically  !
 ! D22   D(1,11,16,14)          87.9738         calculate D2E/DX2 analytically  !
 ! D23   D(1,11,16,15)         179.5712         calculate D2E/DX2 analytically  !
 ! D24   D(1,11,16,17)          -0.4288         calculate D2E/DX2 analytically  !
 ! D25   D(1,11,18,24)          -0.845          calculate D2E/DX2 analytically  !
 ! D26   D(1,12,17,16)           0.4288         calculate D2E/DX2 analytically  !
 ! D27   D(1,12,17,19)          88.8318         calculate D2E/DX2 analytically  !
 ! D28   D(1,12,17,22)         -87.9738         calculate D2E/DX2 analytically  !
 ! D29   D(1,12,17,23)        -179.5712         calculate D2E/DX2 analytically  !
 ! D30   D(1,12,21,24)           0.845          calculate D2E/DX2 analytically  !
 ! D31   D(3,13,16,11)          87.9836         calculate D2E/DX2 analytically  !
 ! D32   D(3,13,16,15)         179.565          calculate D2E/DX2 analytically  !
 ! D33   D(3,13,16,17)          -0.435          calculate D2E/DX2 analytically  !
 ! D34   D(3,13,16,18)         -88.8532         calculate D2E/DX2 analytically  !
 ! D35   D(20,14,16,11)        -88.8532         calculate D2E/DX2 analytically  !
 ! D36   D(20,14,16,15)        179.565          calculate D2E/DX2 analytically  !
 ! D37   D(20,14,16,17)         -0.435          calculate D2E/DX2 analytically  !
 ! D38   D(20,14,16,18)         87.9836         calculate D2E/DX2 analytically  !
 ! D39   D(16,14,20,22)          0.9456         calculate D2E/DX2 analytically  !
 ! D40   D(16,14,20,25)       -177.729          calculate D2E/DX2 analytically  !
 ! D41   D(35,15,16,11)         89.6683         calculate D2E/DX2 analytically  !
 ! D42   D(35,15,16,13)         -0.3239         calculate D2E/DX2 analytically  !
 ! D43   D(35,15,16,14)        179.6761         calculate D2E/DX2 analytically  !
 ! D44   D(35,15,16,18)        -90.3317         calculate D2E/DX2 analytically  !
 ! D45   D(36,15,16,11)        -90.3316         calculate D2E/DX2 analytically  !
 ! D46   D(36,15,16,13)        179.6762         calculate D2E/DX2 analytically  !
 ! D47   D(36,15,16,14)         -0.3238         calculate D2E/DX2 analytically  !
 ! D48   D(36,15,16,18)         89.6684         calculate D2E/DX2 analytically  !
 ! D49   D(35,15,17,12)         89.6683         calculate D2E/DX2 analytically  !
 ! D50   D(35,15,17,19)         -0.324          calculate D2E/DX2 analytically  !
 ! D51   D(35,15,17,21)        -90.3317         calculate D2E/DX2 analytically  !
 ! D52   D(35,15,17,22)        179.676          calculate D2E/DX2 analytically  !
 ! D53   D(36,15,17,12)        -90.3316         calculate D2E/DX2 analytically  !
 ! D54   D(36,15,17,19)        179.6762         calculate D2E/DX2 analytically  !
 ! D55   D(36,15,17,21)         89.6684         calculate D2E/DX2 analytically  !
 ! D56   D(36,15,17,22)         -0.3238         calculate D2E/DX2 analytically  !
 ! D57   D(35,15,23,33)        180.0            calculate D2E/DX2 analytically  !
 ! D58   D(35,15,23,34)         -0.0001         calculate D2E/DX2 analytically  !
 ! D59   D(36,15,23,33)          0.0001         calculate D2E/DX2 analytically  !
 ! D60   D(36,15,23,34)        180.0            calculate D2E/DX2 analytically  !
 ! D61   D(11,16,17,12)          0.0            calculate D2E/DX2 analytically  !
 ! D62   D(11,16,17,19)        -89.9922         calculate D2E/DX2 analytically  !
 ! D63   D(11,16,17,21)        180.0            calculate D2E/DX2 analytically  !
 ! D64   D(11,16,17,22)         90.0078         calculate D2E/DX2 analytically  !
 ! D65   D(13,16,17,12)         89.9922         calculate D2E/DX2 analytically  !
 ! D66   D(13,16,17,19)          0.0            calculate D2E/DX2 analytically  !
 ! D67   D(13,16,17,21)        -90.0078         calculate D2E/DX2 analytically  !
 ! D68   D(13,16,17,22)        180.0            calculate D2E/DX2 analytically  !
 ! D69   D(14,16,17,12)        -90.0078         calculate D2E/DX2 analytically  !
 ! D70   D(14,16,17,19)        180.0            calculate D2E/DX2 analytically  !
 ! D71   D(14,16,17,21)         89.9922         calculate D2E/DX2 analytically  !
 ! D72   D(14,16,17,22)          0.0            calculate D2E/DX2 analytically  !
 ! D73   D(18,16,17,12)        180.0            calculate D2E/DX2 analytically  !
 ! D74   D(18,16,17,19)         90.0078         calculate D2E/DX2 analytically  !
 ! D75   D(18,16,17,21)          0.0            calculate D2E/DX2 analytically  !
 ! D76   D(18,16,17,22)        -89.9922         calculate D2E/DX2 analytically  !
 ! D77   D(13,16,18,24)         87.9738         calculate D2E/DX2 analytically  !
 ! D78   D(14,16,18,24)        -88.8318         calculate D2E/DX2 analytically  !
 ! D79   D(15,16,18,24)        179.5712         calculate D2E/DX2 analytically  !
 ! D80   D(17,16,18,24)         -0.4288         calculate D2E/DX2 analytically  !
 ! D81   D(11,16,23,33)         90.3317         calculate D2E/DX2 analytically  !
 ! D82   D(11,16,23,34)        -89.6684         calculate D2E/DX2 analytically  !
 ! D83   D(13,16,23,33)       -179.676          calculate D2E/DX2 analytically  !
 ! D84   D(13,16,23,34)          0.3238         calculate D2E/DX2 analytically  !
 ! D85   D(14,16,23,33)          0.3239         calculate D2E/DX2 analytically  !
 ! D86   D(14,16,23,34)       -179.6762         calculate D2E/DX2 analytically  !
 ! D87   D(18,16,23,33)        -89.6683         calculate D2E/DX2 analytically  !
 ! D88   D(18,16,23,34)         90.3316         calculate D2E/DX2 analytically  !
 ! D89   D(12,17,19,3)         -87.9836         calculate D2E/DX2 analytically  !
 ! D90   D(16,17,19,3)           0.435          calculate D2E/DX2 analytically  !
 ! D91   D(21,17,19,3)          88.8532         calculate D2E/DX2 analytically  !
 ! D92   D(23,17,19,3)        -179.565          calculate D2E/DX2 analytically  !
 ! D93   D(3,19,22,20)           0.8572         calculate D2E/DX2 analytically  !
 ! D94   D(16,17,21,24)          0.4288         calculate D2E/DX2 analytically  !
 ! D95   D(19,17,21,24)        -87.9738         calculate D2E/DX2 analytically  !
 ! D96   D(22,17,21,24)         88.8318         calculate D2E/DX2 analytically  !
 ! D97   D(23,17,21,24)       -179.5712         calculate D2E/DX2 analytically  !
 ! D98   D(12,17,22,20)         88.8532         calculate D2E/DX2 analytically  !
 ! D99   D(16,17,22,20)          0.435          calculate D2E/DX2 analytically  !
 ! D100  D(21,17,22,20)        -87.9835         calculate D2E/DX2 analytically  !
 ! D101  D(23,17,22,20)       -179.565          calculate D2E/DX2 analytically  !
 ! D102  D(12,17,23,33)         90.3317         calculate D2E/DX2 analytically  !
 ! D103  D(12,17,23,34)        -89.6684         calculate D2E/DX2 analytically  !
 ! D104  D(19,17,23,33)       -179.6761         calculate D2E/DX2 analytically  !
 ! D105  D(19,17,23,34)          0.3238         calculate D2E/DX2 analytically  !
 ! D106  D(21,17,23,33)        -89.6683         calculate D2E/DX2 analytically  !
 ! D107  D(21,17,23,34)         90.3316         calculate D2E/DX2 analytically  !
 ! D108  D(22,17,23,33)          0.324          calculate D2E/DX2 analytically  !
 ! D109  D(22,17,23,34)       -179.6762         calculate D2E/DX2 analytically  !
 ! D110  D(16,18,24,21)          0.9341         calculate D2E/DX2 analytically  !
 ! D111  D(16,18,24,26)       -177.7628         calculate D2E/DX2 analytically  !
 ! D112  D(14,20,22,17)         -0.9456         calculate D2E/DX2 analytically  !
 ! D113  D(25,20,22,17)        177.729          calculate D2E/DX2 analytically  !
 ! D114  D(14,20,25,30)         89.3905         calculate D2E/DX2 analytically  !
 ! D115  D(14,20,25,31)        -29.4986         calculate D2E/DX2 analytically  !
 ! D116  D(14,20,25,32)       -151.7204         calculate D2E/DX2 analytically  !
 ! D117  D(22,20,25,30)        -89.3905         calculate D2E/DX2 analytically  !
 ! D118  D(22,20,25,31)        151.7204         calculate D2E/DX2 analytically  !
 ! D119  D(22,20,25,32)         29.4986         calculate D2E/DX2 analytically  !
 ! D120  D(17,21,24,18)         -0.9341         calculate D2E/DX2 analytically  !
 ! D121  D(17,21,24,26)        177.7628         calculate D2E/DX2 analytically  !
 ! D122  D(18,24,26,27)         89.4021         calculate D2E/DX2 analytically  !
 ! D123  D(18,24,26,28)        -29.4393         calculate D2E/DX2 analytically  !
 ! D124  D(18,24,26,29)       -151.7566         calculate D2E/DX2 analytically  !
 ! D125  D(21,24,26,27)        -89.4021         calculate D2E/DX2 analytically  !
 ! D126  D(21,24,26,28)        151.7566         calculate D2E/DX2 analytically  !
 ! D127  D(21,24,26,29)         29.4393         calculate D2E/DX2 analytically  !
 --------------------------------------------------------------------------------
 Trust Radius=3.00D-01 FncErr=1.00D-07 GrdErr=1.00D-07
 Number of steps in this run=   2 maximum allowed number of steps=   2.
 GradGradGradGradGradGradGradGradGradGradGradGradGradGradGradGradGradGrad

 Leave Link  103 at Sun Nov 24 22:23:14 2013, MaxMem=   33554432 cpu:       0.0
 (Enter /net/cottusp/opt/gaussian/g09revA02_amd64/g09/l202.exe)
                          Input orientation:                          
 ---------------------------------------------------------------------
 Center     Atomic      Atomic             Coordinates (Angstroms)
 Number     Number       Type             X           Y           Z
 ---------------------------------------------------------------------
      1          6           0       -0.008636    2.679440    0.000000
      2          6           0       -0.061034    4.197798    0.000000
      3          6           0        2.680261    0.009119    0.000000
      4          6           0        4.198269    0.062469    0.000000
      5          1           0       -1.116771    4.528241    0.000000
      6          1           0        0.424670    4.593394    0.906234
      7          1           0        0.424670    4.593394   -0.906235
      8          1           0        4.528290    1.118331    0.000000
      9          1           0        4.594794   -0.423607    0.905618
     10          1           0        4.594794   -0.423606   -0.905619
     11          8           0       -0.000019    2.076379   -1.167756
     12          8           0       -0.000019    2.076379    1.167755
     13          8           0        2.075820    0.000300   -1.167208
     14          8           0       -2.075820   -0.000301   -1.167207
     15          8           0        0.000000    0.000000   -3.500196
     16         45           0        0.000000    0.000000   -1.225110
     17         45           0        0.000000    0.000000    1.225110
     18          8           0        0.000019   -2.076379   -1.167755
     19          8           0        2.075820    0.000300    1.167207
     20          6           0       -2.680261   -0.009119    0.000000
     21          8           0        0.000019   -2.076379    1.167756
     22          8           0       -2.075820   -0.000300    1.167208
     23          8           0        0.000000    0.000000    3.500196
     24          6           0        0.008636   -2.679440    0.000000
     25          6           0       -4.198269   -0.062469    0.000000
     26          6           0        0.061034   -4.197798    0.000000
     27          1           0        1.116771   -4.528241    0.000001
     28          1           0       -0.424670   -4.593394   -0.906234
     29          1           0       -0.424670   -4.593394    0.906235
     30          1           0       -4.528290   -1.118331    0.000000
     31          1           0       -4.594794    0.423607   -0.905618
     32          1           0       -4.594794    0.423607    0.905619
     33          1           0       -0.821551   -0.004764    4.037344
     34          1           0        0.821551    0.004762    4.037344
     35          1           0        0.821551    0.004764   -4.037344
     36          1           0       -0.821551   -0.004762   -4.037344
 ---------------------------------------------------------------------
                    Distance matrix (angstroms):
                    1          2          3          4          5
     1  C    0.000000
     2  C    1.519262   0.000000
     3  C    3.789563   5.005970   0.000000
     4  C    4.954451   5.936548   1.518945   0.000000
     5  H    2.155465   1.106243   5.902535   6.942101   0.000000
     6  H    2.161535   1.101665   5.188886   5.965785   1.789287
     7  H    2.161535   1.101665   5.188885   5.965785   1.789287
     8  H    4.797995   5.526754   2.155356   1.106235   6.595013
     9  H    5.624999   6.622255   2.161674   1.101656   7.613338
    10  H    5.624999   6.622255   2.161674   1.101656   7.613338
    11  O    1.314310   2.422353   3.580659   4.800532   2.936395
    12  O    1.314310   2.422353   3.580659   4.800532   2.936395
    13  O    3.589585   4.852577   1.314458   2.423021   5.661913
    14  O    3.580032   4.800601   4.897221   6.382046   4.773870
    15  O    4.408043   5.465949   4.408543   5.466328   5.831253
    16  Rh   2.946247   4.373343   2.946995   4.373815   4.822140
    17  Rh   2.946246   4.373343   2.946995   4.373815   4.822140
    18  O    4.897095   6.382216   3.591191   4.854238   6.799403
    19  O    3.589585   4.852577   1.314458   2.423021   5.661913
    20  C    3.790241   4.955653   5.360554   6.878903   4.799181
    21  O    4.897095   6.382216   3.591191   4.854238   6.799403
    22  O    3.580032   4.800600   4.897221   6.382046   4.773870
    23  O    4.408043   5.465950   4.408543   5.466328   5.831253
    24  C    5.358908   6.877591   3.790241   5.007104   7.295012
    25  C    5.007104   5.938569   6.878903   8.397468   5.529037
    26  C    6.877591   8.396483   4.955653   5.938569   8.805168
    27  H    7.295012   8.805168   4.799181   5.529037   9.327839
    28  H    7.340876   8.845256   5.625387   6.623435   9.192632
    29  H    7.340876   8.845256   5.625387   6.623435   9.192632
    30  H    5.903417   6.943889   7.296187   8.806084   6.597138
    31  H    5.190547   5.968220   7.342913   8.846950   5.455714
    32  H    5.190547   5.968220   7.342913   8.846950   5.455714
    33  H    4.915885   5.877080   5.344439   6.442302   6.077454
    34  H    4.913579   5.887330   4.444657   5.263621   6.365462
    35  H    4.913578   5.887328   4.444657   5.263621   6.365460
    36  H    4.915885   5.877078   5.344439   6.442302   6.077452
                    6          7          8          9         10
     6  H    0.000000
     7  H    1.812469   0.000000
     8  H    5.453166   5.453166   0.000000
     9  H    6.523820   6.770749   1.789452   0.000000
    10  H    6.770749   6.523820   1.789452   1.811237   0.000000
    11  O    3.288945   2.565954   4.773583   5.626821   5.237457
    12  O    2.565954   3.288945   4.773583   5.237457   5.626821
    13  O    5.303015   4.887833   2.937171   3.289610   2.567753
    14  O    5.626157   5.236658   6.799116   6.998063   6.689149
    15  O    6.379360   5.292281   5.831590   6.379873   5.293714
    16  Rh   5.081559   4.623991   4.822548   5.082478   4.625327
    17  Rh   4.623991   5.081559   4.822548   4.625327   5.082478
    18  O    6.997688   6.688392   5.663485   5.304950   4.890023
    19  O    4.887833   5.303015   2.937171   2.567754   3.289610
    20  C    5.625387   5.625387   7.296187   7.342913   7.342913
    21  O    6.688392   6.997688   5.663484   4.890023   5.304950
    22  O    5.236658   5.626157   6.799116   6.689149   6.998063
    23  O    5.292282   6.379361   5.831590   5.293714   6.379873
    24  C    7.340876   7.340876   5.903417   5.190547   5.190547
    25  C    6.623435   6.623435   8.806084   8.846950   8.846950
    26  C    8.845256   8.845256   6.943889   5.968220   5.968220
    27  H    9.192632   9.192632   6.597138   5.455714   5.455714
    28  H    9.402314   9.225966   7.614255   6.772367   6.525500
    29  H    9.225966   9.402313   7.614255   6.525500   6.772368
    30  H    7.614255   7.614255   9.328681   9.194207   9.194207
    31  H    6.772367   6.525500   9.194207   9.404620   9.228559
    32  H    6.525500   6.772368   9.194207   9.228559   9.404620
    33  H    5.700875   6.865501   6.795755   6.270560   7.344733
    34  H    5.569282   6.756629   5.592861   4.922253   6.233278
    35  H    6.756627   5.569280   5.592861   6.233278   4.922253
    36  H    6.865499   5.700873   6.795755   7.344733   6.270560
                   11         12         13         14         15
    11  O    0.000000
    12  O    2.335511   0.000000
    13  O    2.935849   3.751168   0.000000
    14  O    2.936247   3.751479   4.151640   0.000000
    15  O    3.122759   5.108925   3.122797   3.122797   0.000000
    16  Rh   2.077171   3.168147   2.076627   2.076627   2.275086
    17  Rh   3.168147   2.077171   3.167367   3.167367   4.725306
    18  O    4.152758   4.764453   2.936247   2.935849   3.122760
    19  O    3.751168   2.935849   2.334415   4.762941   5.108197
    20  C    3.591191   3.591191   4.897221   1.314458   4.408543
    21  O    4.764452   4.152758   3.751479   3.751168   5.108925
    22  O    3.751479   2.936247   4.762941   2.334415   5.108197
    23  O    5.108925   3.122760   5.108197   5.108197   7.000391
    24  C    4.897095   4.897095   3.580032   3.589585   4.408043
    25  C    4.854238   4.854238   6.382046   2.423021   5.466328
    26  C    6.382216   6.382216   4.800600   4.852577   5.465950
    27  H    6.799403   6.799403   4.773870   5.661913   5.831254
    28  H    6.688392   6.997688   5.236658   4.887833   5.292282
    29  H    6.997688   6.688392   5.626157   5.303015   6.379361
    30  H    5.663484   5.663485   6.799116   2.937171   5.831590
    31  H    4.890023   5.304950   6.689149   2.567754   5.293714
    32  H    5.304950   4.890023   6.998063   3.289610   6.379873
    33  H    5.665610   3.638765   5.956689   5.353557   7.582181
    34  H    5.662123   3.633334   5.353557   5.956689   7.582181
    35  H    3.633332   5.662122   3.132235   4.078292   0.981579
    36  H    3.638764   5.665609   4.078292   3.132235   0.981579
                   16         17         18         19         20
    16  Rh   0.000000
    17  Rh   2.450220   0.000000
    18  O    2.077171   3.168147   0.000000
    19  O    3.167367   2.076627   3.751479   0.000000
    20  C    2.946995   2.946995   3.580659   4.897221   0.000000
    21  O    3.168147   2.077171   2.335511   2.936247   3.580659
    22  O    3.167367   2.076627   3.751168   4.151640   1.314458
    23  O    4.725306   2.275086   5.108925   3.122797   4.408543
    24  C    2.946246   2.946247   1.314310   3.580032   3.789563
    25  C    4.373815   4.373815   4.800532   6.382046   1.518945
    26  C    4.373343   4.373343   2.422353   4.800601   5.005970
    27  H    4.822141   4.822140   2.936395   4.773870   5.902535
    28  H    4.623991   5.081559   2.565954   5.626157   5.188886
    29  H    5.081559   4.623991   3.288945   5.236658   5.188885
    30  H    4.822548   4.822548   4.773583   6.799116   2.155356
    31  H    4.625327   5.082478   5.237457   6.998063   2.161674
    32  H    5.082478   4.625327   5.626821   6.689149   2.161674
    33  H    5.326199   2.929783   5.662122   4.078292   4.444657
    34  H    5.326199   2.929783   5.665609   3.132235   5.344439
    35  H    2.929783   5.326199   3.638765   5.353557   5.344439
    36  H    2.929783   5.326199   3.633334   5.956689   4.444657
                   21         22         23         24         25
    21  O    0.000000
    22  O    2.935849   0.000000
    23  O    3.122759   3.122797   0.000000
    24  C    1.314310   3.589585   4.408043   0.000000
    25  C    4.800532   2.423021   5.466328   4.954451   0.000000
    26  C    2.422353   4.852577   5.465949   1.519262   5.936548
    27  H    2.936395   5.661913   5.831253   2.155465   6.942101
    28  H    3.288945   5.303015   6.379361   2.161535   5.965785
    29  H    2.565954   4.887833   5.292282   2.161535   5.965785
    30  H    4.773583   2.937171   5.831590   4.797995   1.106235
    31  H    5.626821   3.289610   6.379873   5.624999   1.101656
    32  H    5.237457   2.567753   5.293714   5.624999   1.101656
    33  H    3.633332   3.132235   0.981579   4.913578   5.263621
    34  H    3.638764   4.078292   0.981579   4.915885   6.442302
    35  H    5.665610   5.956689   7.582181   4.915885   6.442302
    36  H    5.662123   5.353557   7.582181   4.913579   5.263621
                   26         27         28         29         30
    26  C    0.000000
    27  H    1.106243   0.000000
    28  H    1.101665   1.789287   0.000000
    29  H    1.101665   1.789287   1.812469   0.000000
    30  H    5.526754   6.595013   5.453166   5.453166   0.000000
    31  H    6.622255   7.613338   6.523820   6.770749   1.789452
    32  H    6.622255   7.613338   6.770749   6.523820   1.789452
    33  H    5.887328   6.365460   6.756627   5.569280   5.592861
    34  H    5.877078   6.077452   6.865499   5.700873   6.795755
    35  H    5.877080   6.077454   5.700875   6.865501   6.795755
    36  H    5.887330   6.365462   5.569282   6.756628   5.592861
                   31         32         33         34         35
    31  H    0.000000
    32  H    1.811237   0.000000
    33  H    6.233278   4.922253   0.000000
    34  H    7.344733   6.270560   1.643129   0.000000
    35  H    6.270560   7.344733   8.240174   8.074689   0.000000
    36  H    4.922253   6.233278   8.074689   8.240174   1.643129
                   36
    36  H    0.000000
 Symmetry turned off by external request.
 Stoichiometry    C8H16O10Rh2
 Framework group  C1[X(C8H16O10Rh2)]
 Deg. of freedom   102
 Full point group                 C1      NOp   1
 Rotational constants (GHZ):      0.2593921      0.2590111      0.2521354
 Leave Link  202 at Sun Nov 24 22:23:14 2013, MaxMem=   33554432 cpu:       0.0
 (Enter /net/cottusp/opt/gaussian/g09revA02_amd64/g09/l301.exe)
 Standard basis: LANL2DZ (5D, 7F)
 Ernie: Thresh=  0.10000D-02 Tol=  0.10000D-05 Strict=F.
 Ernie:  2 primitive shells out of 370 were deleted.
 Integral buffers will be    131072 words long.
 Raffenetti 2 integral format.
 Two-electron integral symmetry is turned off.
   238 basis functions,   612 primitive gaussians,   242 cartesian basis functions
    89 alpha electrons       89 beta electrons
       nuclear repulsion energy      2357.7433732038 Hartrees.
 IExCor=  404 DFT=T Ex=B Corr=P86 ExCW=0 ScaHFX=  0.000000
 ScaDFX=  1.000000  1.000000  1.000000  1.000000 ScalE2=  1.000000  1.000000
 IRadAn=      5 IRanWt=     -1 IRanGd=            0 ICorTp=0
 NAtoms=   36 NActive=   36 NUniq=   36 SFac= 7.50D-01 NAtFMM=   80 NAOKFM=F Big=F
 Leave Link  301 at Sun Nov 24 22:23:15 2013, MaxMem=   33554432 cpu:       0.3
 (Enter /net/cottusp/opt/gaussian/g09revA02_amd64/g09/l302.exe)
 NPDir=0 NMtPBC=     1 NCelOv=     1 NCel=       1 NClECP=     1 NCelD=      1
         NCelK=      1 NCelE2=     1 NClLst=     1 CellRange=     0.0.
 One-electron integrals computed using PRISM.
   1 Symmetry operations used in ECPInt.
 ECPInt:  NShTT=    9591 NPrTT=   68474 LenC2=    9087 LenP2D=   38378.
 LDataN:  DoStor=T MaxTD1= 5 Len=  102
 NBasis=   238 RedAO= T  NBF=   238
 NBsUse=   238 1.00D-06 NBFU=   238
 Precomputing XC quadrature grid using
 IXCGrd= 2 IRadAn=           5 IRanWt=          -1 IRanGd=           0 AccXCQ= 1.00D-10.
 Defaulting to unpruned grid for atomic number  45.
 NRdTot=    3098 NPtTot=      879952 NUsed=      902119 NTot=      902151
 NSgBfM=   242   242   242   242   242 NAtAll=    36    36.
 Leave Link  302 at Sun Nov 24 22:23:20 2013, MaxMem=   33554432 cpu:       8.5
 (Enter /net/cottusp/opt/gaussian/g09revA02_amd64/g09/l303.exe)
 DipDrv:  MaxL=1.
 Leave Link  303 at Sun Nov 24 22:23:21 2013, MaxMem=   33554432 cpu:       0.1
 (Enter /net/cottusp/opt/gaussian/g09revA02_amd64/g09/l401.exe)
 Initial guess read from the checkpoint file:  rhacf.chk
 B after Tr=     0.000000    0.000000    0.000000
         Rot=    1.000000    0.000000    0.000000    0.000000 Ang=   0.00 deg.
 Guess basis will be translated and rotated to current coordinates.
 Leave Link  401 at Sun Nov 24 22:23:21 2013, MaxMem=   33554432 cpu:       0.4
 (Enter /net/cottusp/opt/gaussian/g09revA02_amd64/g09/l502.exe)
 Closed shell SCF:
 Requested convergence on RMS density matrix=1.00D-08 within 128 cycles.
 Requested convergence on MAX density matrix=1.00D-06.
 Requested convergence on             energy=1.00D-06.
 No special actions if energy rises.
 Using DIIS extrapolation, IDIIS=  1040.
 Two-electron integral symmetry not used.
       901782 words used for storage of precomputed grid.
 IEnd=     1098596 IEndB=     1098596 NGot=    33554432 MDV=    32531283
 LenX=    32531283 LenY=    32472278
 Fock matrices will be formed incrementally for  20 cycles.

 Cycle   1  Pass 1  IDiag  1:
 FoFCou: FMM=F IPFlag=           0 FMFlag=      100000 FMFlg1=           0
         NFxFlg=           0 DoJE=T BraDBF=F KetDBF=F FulRan=T
         Omega=  0.000000  0.000000  1.000000  0.000000  0.000000 ICntrl=     500 IOpCl=  0
         NMat0=    1 NMatS0=    1 NMatT0=    0 NMatD0=    1 NMtDS0=    0 NMtDT0=    0
         I1Cent=           0 NGrid=           0.
 Symmetry not used in FoFCou.
 Defaulting to unpruned grid for atomic number  45.
 Defaulting to unpruned grid for atomic number  45.
 E= -1286.10632675446    
 DIIS: error= 2.40D-08 at cycle   1 NSaved=   1.
 NSaved= 1 IEnMin= 1 EnMin= -1286.10632675446     IErMin= 1 ErrMin= 2.40D-08
 ErrMax= 2.40D-08 EMaxC= 1.00D-01 BMatC= 9.86D-14 BMatP= 9.86D-14
 IDIUse=1 WtCom= 1.00D+00 WtEn= 0.00D+00
 Coeff-Com:  0.100D+01
 Coeff:      0.100D+01
 Gap=     0.066 Goal=   None    Shift=    0.000
 RMSDP=5.69D-09 MaxDP=2.56D-07              OVMax= 2.49D-07

 SCF Done:  E(RB-P86) =  -1286.10632675     A.U. after    1 cycles
             Convg  =    0.5689D-08             -V/T =  2.1306
 KE= 1.137545888788D+03 PE=-7.687369367957D+03 EE= 2.905973779211D+03
 Leave Link  502 at Sun Nov 24 22:23:50 2013, MaxMem=   33554432 cpu:      56.7
 (Enter /net/cottusp/opt/gaussian/g09revA02_amd64/g09/l801.exe)
 Range of M.O.s used for correlation:     1   238
 NBasis=   238 NAE=    89 NBE=    89 NFC=     0 NFV=     0
 NROrb=    238 NOA=    89 NOB=    89 NVA=   149 NVB=   149

 **** Warning!!: The smallest alpha delta epsilon is  0.65513507D-01

 Leave Link  801 at Sun Nov 24 22:23:51 2013, MaxMem=   33554432 cpu:       0.0
 (Enter /net/cottusp/opt/gaussian/g09revA02_amd64/g09/l1002.exe)
 Minotr:  Closed shell wavefunction.
          Direct CPHF calculation.
          Differentiating once with respect to electric field.
                with respect to dipole field.
          Electric field/nuclear overlap derivatives assumed to be zero.
          Requested convergence is 1.0D-08 RMS, and 1.0D-07 maximum.
          Secondary convergence is 1.0D-12 RMS, and 1.0D-12 maximum.
          NewPWx=F KeepS1=T KeepF1=T KeepIn=T MapXYZ=F SortEE=F KeepMc=T.
          MDV=      33554140 using IRadAn=       1.
 Defaulting to unpruned grid for atomic number  45.
 Generate precomputed XC quadrature information.
          Solving linear equations simultaneously, MaxMat=       0.
          There are     3 degrees of freedom in the 1st order CPHF.  IDoFFX=0.
      3 vectors produced by pass  0 Test12= 4.42D-13 3.33D-08 XBig12= 6.34D+02 1.65D+01.
 AX will form     3 AO Fock derivatives at one time.
 FoFCou: FMM=F IPFlag=           0 FMFlag=      100000 FMFlg1=           0
         NFxFlg=           0 DoJE=T BraDBF=F KetDBF=F FulRan=T
         Omega=  0.000000  0.000000  1.000000  0.000000  0.000000 ICntrl=     500 IOpCl=  0
         NMat0=    3 NMatS0=    3 NMatT0=    0 NMatD0=    3 NMtDS0=    0 NMtDT0=    0
         I1Cent=           0 NGrid=           0.
 Symmetry not used in FoFCou.
 Defaulting to unpruned grid for atomic number  45.
 Defaulting to unpruned grid for atomic number  45.
      3 vectors produced by pass  1 Test12= 4.42D-13 3.33D-08 XBig12= 2.82D+03 1.92D+01.
      3 vectors produced by pass  2 Test12= 4.42D-13 3.33D-08 XBig12= 5.76D+03 3.13D+01.
      3 vectors produced by pass  3 Test12= 4.42D-13 3.33D-08 XBig12= 2.08D+03 1.37D+01.
      3 vectors produced by pass  4 Test12= 4.42D-13 3.33D-08 XBig12= 5.71D+01 2.64D+00.
      3 vectors produced by pass  5 Test12= 4.42D-13 3.33D-08 XBig12= 4.01D+01 2.05D+00.
      3 vectors produced by pass  6 Test12= 4.42D-13 3.33D-08 XBig12= 1.39D+01 8.17D-01.
      3 vectors produced by pass  7 Test12= 4.42D-13 3.33D-08 XBig12= 1.11D+01 7.21D-01.
      3 vectors produced by pass  8 Test12= 4.42D-13 3.33D-08 XBig12= 4.08D-01 7.20D-02.
      3 vectors produced by pass  9 Test12= 4.42D-13 3.33D-08 XBig12= 5.42D-03 1.50D-02.
      3 vectors produced by pass 10 Test12= 4.42D-13 3.33D-08 XBig12= 7.99D-05 2.65D-03.
      3 vectors produced by pass 11 Test12= 4.42D-13 3.33D-08 XBig12= 2.23D-05 2.00D-03.
      3 vectors produced by pass 12 Test12= 4.42D-13 3.33D-08 XBig12= 8.06D-06 6.64D-04.
      3 vectors produced by pass 13 Test12= 4.42D-13 3.33D-08 XBig12= 2.25D-06 5.23D-04.
      3 vectors produced by pass 14 Test12= 4.42D-13 3.33D-08 XBig12= 3.76D-08 3.74D-05.
      3 vectors produced by pass 15 Test12= 4.42D-13 3.33D-08 XBig12= 5.60D-10 5.62D-06.
      3 vectors produced by pass 16 Test12= 4.42D-13 3.33D-08 XBig12= 1.95D-10 2.34D-06.
      1 vectors produced by pass 17 Test12= 4.42D-13 3.33D-08 XBig12= 8.24D-12 6.72D-07.
      1 vectors produced by pass 18 Test12= 4.42D-13 3.33D-08 XBig12= 1.99D-12 2.87D-07.
      1 vectors produced by pass 19 Test12= 4.42D-13 3.33D-08 XBig12= 4.72D-13 1.07D-07.
 Inverted reduced A of dimension    54 with in-core refinement.
 End of Minotr Frequency-dependent properties file   721 does not exist.
 End of Minotr Frequency-dependent properties file   722 does not exist.
 Leave Link 1002 at Sun Nov 24 22:31:05 2013, MaxMem=   33554432 cpu:     866.2
 (Enter /net/cottusp/opt/gaussian/g09revA02_amd64/g09/l1101.exe)
 Using compressed storage, NAtomX=    36.
 Will process  37 centers per pass.
   1 Symmetry operations used in ECPInt.
 ECPInt:  NShTT=    9591 NPrTT=   68474 LenC2=    9087 LenP2D=   38378.
 LDataN:  DoStor=T MaxTD1= 6 Len=  172
 Leave Link 1101 at Sun Nov 24 22:31:09 2013, MaxMem=   33554432 cpu:       7.1
 (Enter /net/cottusp/opt/gaussian/g09revA02_amd64/g09/l1102.exe)
 Symmetrizing basis deriv contribution to polar:
 IMax=3 JMax=2 DiffMx= 0.00D+00
 Leave Link 1102 at Sun Nov 24 22:31:10 2013, MaxMem=   33554432 cpu:       0.2
 (Enter /net/cottusp/opt/gaussian/g09revA02_amd64/g09/l1110.exe)
 Forming Gx(P) for the SCF density, NAtomX=    36.
 Integral derivatives from FoFDir/FoFCou, PRISM(SPDF).
 Do as many integral derivatives as possible in FoFDir.
 G2DrvN: MDV=      33554040.
 G2DrvN: will do    37 centers at a time, making    1 passes doing MaxLOS=2.
 Calling FoFCou, ICntrl=  3507 FMM=F I1Cent=   0 AccDes= 0.00D+00.
 FoFCou: FMM=F IPFlag=           0 FMFlag=      100000 FMFlg1=           0
         NFxFlg=           0 DoJE=F BraDBF=F KetDBF=F FulRan=T
         Omega=  0.000000  0.000000  1.000000  0.000000  0.000000 ICntrl=    3507 IOpCl=  0
         NMat0=    1 NMatS0=    1 NMatT0=    0 NMatD0=    4 NMtDS0=    3 NMtDT0=    0
         I1Cent=           0 NGrid=           0.
 Symmetry not used in FoFCou.
 Defaulting to unpruned grid for atomic number  45.
 Defaulting to unpruned grid for atomic number  45.
 FoFDir/FoFCou used for L=0 through L=2.
 End of G2Drv Frequency-dependent properties file   721 does not exist.
 End of G2Drv Frequency-dependent properties file   722 does not exist.
 Leave Link 1110 at Sun Nov 24 22:55:47 2013, MaxMem=   33554432 cpu:    2949.7
 (Enter /net/cottusp/opt/gaussian/g09revA02_amd64/g09/l1002.exe)
 Minotr:  Closed shell wavefunction.
          IDoAtm=111111111111111111111111111111111111
          Direct CPHF calculation.
          Differentiating once with respect to electric field.
                with respect to dipole field.
          Differentiating once with respect to nuclear coordinates.
          Requested convergence is 1.0D-08 RMS, and 1.0D-07 maximum.
          Secondary convergence is 1.0D-12 RMS, and 1.0D-12 maximum.
          NewPWx=T KeepS1=F KeepF1=F KeepIn=T MapXYZ=F SortEE=F KeepMc=T.
          MDV=      33554068 using IRadAn=       1.
 Defaulting to unpruned grid for atomic number  45.
 Generate precomputed XC quadrature information.
          Solving linear equations simultaneously, MaxMat=       0.
 FoFCou: FMM=F IPFlag=           0 FMFlag=      100000 FMFlg1=           0
         NFxFlg=           0 DoJE=F BraDBF=F KetDBF=F FulRan=T
         Omega=  0.000000  0.000000  1.000000  0.000000  0.000000 ICntrl=     500 IOpCl=  0
         NMat0=  111 NMatS0=  111 NMatT0=    0 NMatD0=  111 NMtDS0=    0 NMtDT0=    0
         I1Cent=           0 NGrid=           0.
 Symmetry not used in FoFCou.
 Defaulting to unpruned grid for atomic number  45.
 Defaulting to unpruned grid for atomic number  45.
          There are   111 degrees of freedom in the 1st order CPHF.  IDoFFX=5.
 Will reuse    3 saved solutions.
    105 vectors produced by pass  0 Test12= 1.33D-14 1.00D-09 XBig12= 5.00D-01 2.16D-01.
 AX will form   105 AO Fock derivatives at one time.
    105 vectors produced by pass  1 Test12= 1.33D-14 1.00D-09 XBig12= 1.53D+00 3.63D-01.
    105 vectors produced by pass  2 Test12= 1.33D-14 1.00D-09 XBig12= 2.09D-03 7.54D-03.
    105 vectors produced by pass  3 Test12= 1.33D-14 1.00D-09 XBig12= 5.19D-06 2.94D-04.
    100 vectors produced by pass  4 Test12= 1.33D-14 1.00D-09 XBig12= 1.91D-09 5.57D-06.
     18 vectors produced by pass  5 Test12= 1.33D-14 1.00D-09 XBig12= 2.04D-13 4.67D-08.
      3 vectors produced by pass  6 Test12= 1.33D-14 1.00D-09 XBig12= 1.28D-16 1.72D-09.
 Inverted reduced A of dimension   541 with in-core refinement.
 FullF1:  Do perturbations    1 to     3.
 Isotropic polarizability for W=    0.000000      199.09 Bohr**3.
 FullF1:  Do perturbations    1 to     6.
 End of Minotr Frequency-dependent properties file   721 does not exist.
 End of Minotr Frequency-dependent properties file   722 does not exist.
 Leave Link 1002 at Sun Nov 24 23:14:06 2013, MaxMem=   33554432 cpu:    2192.8
 (Enter /net/cottusp/opt/gaussian/g09revA02_amd64/g09/l601.exe)
 Copying SCF densities to generalized density rwf, IOpCl= 0 IROHF=0.

 **********************************************************************

            Population analysis using the SCF density.

 **********************************************************************

 Alpha  occ. eigenvalues --  -18.81206 -18.81206 -18.78960 -18.78960 -18.78960
 Alpha  occ. eigenvalues --  -18.78960 -18.78523 -18.78522 -18.78522 -18.78522
 Alpha  occ. eigenvalues --  -10.03504 -10.03504 -10.03041 -10.03041  -9.91434
 Alpha  occ. eigenvalues --   -9.91434  -9.91094  -9.91094  -2.95707  -2.95480
 Alpha  occ. eigenvalues --   -1.79984  -1.79855  -1.79778  -1.79648  -1.79123
 Alpha  occ. eigenvalues --   -1.77281  -0.97988  -0.97571  -0.97327  -0.97199
 Alpha  occ. eigenvalues --   -0.94685  -0.94683  -0.89784  -0.89323  -0.89189
 Alpha  occ. eigenvalues --   -0.88936  -0.66867  -0.66691  -0.66478  -0.66330
 Alpha  occ. eigenvalues --   -0.51780  -0.51741  -0.49723  -0.48950  -0.48003
 Alpha  occ. eigenvalues --   -0.47599  -0.44628  -0.43857  -0.41747  -0.41327
 Alpha  occ. eigenvalues --   -0.41153  -0.40377  -0.40168  -0.40133  -0.39875
 Alpha  occ. eigenvalues --   -0.39698  -0.39347  -0.39168  -0.37343  -0.36701
 Alpha  occ. eigenvalues --   -0.35451  -0.35126  -0.35094  -0.34783  -0.34273
 Alpha  occ. eigenvalues --   -0.32929  -0.32591  -0.31587  -0.29997  -0.29518
 Alpha  occ. eigenvalues --   -0.29241  -0.27706  -0.27662  -0.26110  -0.25666
 Alpha  occ. eigenvalues --   -0.25655  -0.25171  -0.24971  -0.24923  -0.23982
 Alpha  occ. eigenvalues --   -0.23448  -0.23123  -0.20759  -0.19761  -0.19085
 Alpha  occ. eigenvalues --   -0.18915  -0.14608  -0.14435  -0.13865
 Alpha virt. eigenvalues --   -0.07313  -0.07162  -0.05859  -0.03522  -0.03152
 Alpha virt. eigenvalues --   -0.02478  -0.02091  -0.01324  -0.01029   0.03346
 Alpha virt. eigenvalues --    0.03938   0.05301   0.05971   0.07188   0.10933
 Alpha virt. eigenvalues --    0.11529   0.11920   0.12378   0.13809   0.13960
 Alpha virt. eigenvalues --    0.14011   0.14446   0.14994   0.15061   0.15296
 Alpha virt. eigenvalues --    0.16380   0.16763   0.16840   0.17334   0.17362
 Alpha virt. eigenvalues --    0.18155   0.18248   0.18470   0.18539   0.19636
 Alpha virt. eigenvalues --    0.20000   0.20490   0.20885   0.23044   0.24371
 Alpha virt. eigenvalues --    0.25485   0.26866   0.27096   0.27326   0.27572
 Alpha virt. eigenvalues --    0.28028   0.28997   0.29360   0.29988   0.31149
 Alpha virt. eigenvalues --    0.31403   0.32210   0.32392   0.32518   0.34696
 Alpha virt. eigenvalues --    0.36506   0.36678   0.36803   0.37567   0.38985
 Alpha virt. eigenvalues --    0.39532   0.40250   0.40255   0.40653   0.44059
 Alpha virt. eigenvalues --    0.45776   0.46121   0.46953   0.49692   0.50793
 Alpha virt. eigenvalues --    0.50817   0.52545   0.52623   0.55576   0.55581
 Alpha virt. eigenvalues --    0.60134   0.62630   0.64337   0.64743   0.64949
 Alpha virt. eigenvalues --    0.65865   0.67291   0.67936   0.71201   0.74435
 Alpha virt. eigenvalues --    0.75227   0.75260   0.75833   0.76628   0.76833
 Alpha virt. eigenvalues --    0.79140   0.81446   0.83165   0.84587   0.84780
 Alpha virt. eigenvalues --    0.85308   0.86215   0.86628   0.87223   0.87397
 Alpha virt. eigenvalues --    0.89879   0.90689   0.91260   0.92628   0.92761
 Alpha virt. eigenvalues --    0.93337   0.93450   0.94539   0.95345   0.97517
 Alpha virt. eigenvalues --    0.99704   1.00202   1.00207   1.01097   1.01762
 Alpha virt. eigenvalues --    1.02374   1.03762   1.04532   1.05326   1.06049
 Alpha virt. eigenvalues --    1.07347   1.07791   1.08781   1.08783   1.09554
 Alpha virt. eigenvalues --    1.13246   1.15117   1.18112   1.18471   1.19404
 Alpha virt. eigenvalues --    1.22359   1.27241   1.27773   1.32441   1.36062
 Alpha virt. eigenvalues --    1.37863   1.37912   1.69003   1.77699   1.78406
 Alpha virt. eigenvalues --    1.80755   1.84656   1.89939   1.90288   2.00161
 Alpha virt. eigenvalues --    2.03261   2.11049   5.91730   7.26023
          Condensed to atoms (all electrons):
              1          2          3          4          5          6
     1  C    4.915428   0.255473   0.002503  -0.000567  -0.021967  -0.022614
     2  C    0.255473   5.620453  -0.000517   0.000028   0.364698   0.354858
     3  C    0.002503  -0.000517   4.890411   0.258281   0.000002   0.000005
     4  C   -0.000567   0.000028   0.258281   5.615853   0.000000  -0.000001
     5  H   -0.021967   0.364698   0.000002   0.000000   0.459626  -0.018944
     6  H   -0.022614   0.354858   0.000005  -0.000001  -0.018944   0.459019
     7  H   -0.022614   0.354858   0.000005  -0.000001  -0.018944  -0.019539
     8  H   -0.000005  -0.000002  -0.022041   0.364503   0.000000   0.000000
     9  H    0.000005   0.000000  -0.022861   0.354967   0.000000   0.000000
    10  H    0.000005   0.000000  -0.022861   0.354967   0.000000   0.000000
    11  O    0.329080  -0.099306   0.000348   0.000003  -0.001871   0.001415
    12  O    0.329080  -0.099306   0.000348   0.000003  -0.001871   0.003592
    13  O   -0.000174   0.000013   0.336285  -0.098670   0.000000   0.000000
    14  O    0.000315   0.000008  -0.000136  -0.000004   0.000004   0.000000
    15  O   -0.000769  -0.000028  -0.000926  -0.000009   0.000000   0.000000
    16  Rh  -0.099935   0.001582  -0.099315   0.001894   0.000051  -0.000038
    17  Rh  -0.099935   0.001582  -0.099315   0.001894   0.000051   0.001542
    18  O   -0.000133  -0.000005  -0.000123   0.000010   0.000000   0.000000
    19  O   -0.000174   0.000013   0.336285  -0.098670   0.000000   0.000000
    20  C    0.002485  -0.000557  -0.000713  -0.000012  -0.000002   0.000006
    21  O   -0.000133  -0.000005  -0.000123   0.000010   0.000000   0.000000
    22  O    0.000315   0.000008  -0.000136  -0.000004   0.000004  -0.000001
    23  O   -0.000769  -0.000028  -0.000926  -0.000009   0.000000  -0.000001
    24  C   -0.000738  -0.000012   0.002485  -0.000529   0.000000   0.000000
    25  C   -0.000529   0.000028  -0.000012   0.000000  -0.000002   0.000000
    26  C   -0.000012   0.000000  -0.000557   0.000028   0.000000   0.000000
    27  H    0.000000   0.000000  -0.000002  -0.000002   0.000000   0.000000
    28  H    0.000000   0.000000   0.000006   0.000000   0.000000   0.000000
    29  H    0.000000   0.000000   0.000006   0.000000   0.000000   0.000000
    30  H    0.000002   0.000000   0.000000   0.000000   0.000000   0.000000
    31  H    0.000004  -0.000001   0.000000   0.000000   0.000000   0.000000
    32  H    0.000004  -0.000001   0.000000   0.000000   0.000000   0.000000
    33  H    0.000037   0.000000   0.000023   0.000000   0.000000   0.000000
    34  H    0.000034   0.000000   0.000069  -0.000006   0.000000   0.000000
    35  H    0.000034   0.000000   0.000069  -0.000006   0.000000   0.000000
    36  H    0.000037   0.000000   0.000023   0.000000   0.000000   0.000000
              7          8          9         10         11         12
     1  C   -0.022614  -0.000005   0.000005   0.000005   0.329080   0.329080
     2  C    0.354858  -0.000002   0.000000   0.000000  -0.099306  -0.099306
     3  C    0.000005  -0.022041  -0.022861  -0.022861   0.000348   0.000348
     4  C   -0.000001   0.364503   0.354967   0.354967   0.000003   0.000003
     5  H   -0.018944   0.000000   0.000000   0.000000  -0.001871  -0.001871
     6  H   -0.019539   0.000000   0.000000   0.000000   0.001415   0.003592
     7  H    0.459019   0.000000   0.000000   0.000000   0.003592   0.001415
     8  H    0.000000   0.458082  -0.019026  -0.019026   0.000004   0.000004
     9  H    0.000000  -0.019026   0.459364  -0.019432   0.000000  -0.000001
    10  H    0.000000  -0.019026  -0.019432   0.459365  -0.000001   0.000000
    11  O    0.003592   0.000004   0.000000  -0.000001   7.950749  -0.053997
    12  O    0.001415   0.000004  -0.000001   0.000000  -0.053997   7.950747
    13  O    0.000000  -0.001864   0.001416   0.003600  -0.002209   0.000014
    14  O   -0.000001   0.000000   0.000000   0.000000  -0.002196   0.000012
    15  O   -0.000001   0.000000   0.000000  -0.000001  -0.002071  -0.000003
    16  Rh   0.001542   0.000176   0.000038   0.001616   0.206327  -0.030737
    17  Rh  -0.000038   0.000176   0.001616   0.000038  -0.030737   0.206327
    18  O    0.000000   0.000000   0.000000   0.000000  -0.001252  -0.000014
    19  O    0.000000  -0.001864   0.003600   0.001416   0.000014  -0.002209
    20  C    0.000006   0.000000   0.000000   0.000000  -0.000123  -0.000123
    21  O    0.000000   0.000000   0.000000   0.000000  -0.000014  -0.001252
    22  O    0.000000   0.000000   0.000000   0.000000   0.000012  -0.002196
    23  O    0.000000   0.000000  -0.000001   0.000000  -0.000003  -0.002071
    24  C    0.000000   0.000002   0.000004   0.000004  -0.000133  -0.000133
    25  C    0.000000   0.000000   0.000000   0.000000   0.000010   0.000010
    26  C    0.000000   0.000000  -0.000001  -0.000001  -0.000005  -0.000005
    27  H    0.000000   0.000000   0.000000   0.000000   0.000000   0.000000
    28  H    0.000000   0.000000   0.000000   0.000000   0.000000   0.000000
    29  H    0.000000   0.000000   0.000000   0.000000   0.000000   0.000000
    30  H    0.000000   0.000000   0.000000   0.000000   0.000000   0.000000
    31  H    0.000000   0.000000   0.000000   0.000000   0.000000   0.000000
    32  H    0.000000   0.000000   0.000000   0.000000   0.000000   0.000000
    33  H    0.000000   0.000000   0.000000   0.000000   0.000000   0.000003
    34  H    0.000000   0.000000   0.000000   0.000000   0.000000   0.000000
    35  H    0.000000   0.000000   0.000000   0.000000   0.000000   0.000000
    36  H    0.000000   0.000000   0.000000   0.000000   0.000003   0.000000
             13         14         15         16         17         18
     1  C   -0.000174   0.000315  -0.000769  -0.099935  -0.099935  -0.000133
     2  C    0.000013   0.000008  -0.000028   0.001582   0.001582  -0.000005
     3  C    0.336285  -0.000136  -0.000926  -0.099315  -0.099315  -0.000123
     4  C   -0.098670  -0.000004  -0.000009   0.001894   0.001894   0.000010
     5  H    0.000000   0.000004   0.000000   0.000051   0.000051   0.000000
     6  H    0.000000   0.000000   0.000000  -0.000038   0.001542   0.000000
     7  H    0.000000  -0.000001  -0.000001   0.001542  -0.000038   0.000000
     8  H   -0.001864   0.000000   0.000000   0.000176   0.000176   0.000000
     9  H    0.001416   0.000000   0.000000   0.000038   0.001616   0.000000
    10  H    0.003600   0.000000  -0.000001   0.001616   0.000038   0.000000
    11  O   -0.002209  -0.002196  -0.002071   0.206327  -0.030737  -0.001252
    12  O    0.000014   0.000012  -0.000003  -0.030737   0.206327  -0.000014
    13  O    7.959794  -0.001261  -0.003137   0.200467  -0.028014  -0.002196
    14  O   -0.001261   7.959794  -0.003137   0.200467  -0.028014  -0.002209
    15  O   -0.003137  -0.003137   8.138408   0.055090  -0.017551  -0.002071
    16  Rh   0.200467   0.200467   0.055090  16.643588  -0.240778   0.206327
    17  Rh  -0.028014  -0.028014  -0.017551  -0.240778  16.643587  -0.030737
    18  O   -0.002196  -0.002209  -0.002071   0.206327  -0.030737   7.950747
    19  O   -0.055798  -0.000014   0.000000  -0.028014   0.200467   0.000012
    20  C   -0.000136   0.336285  -0.000926  -0.099315  -0.099315   0.000348
    21  O    0.000012   0.000014  -0.000003  -0.030737   0.206327  -0.053997
    22  O   -0.000014  -0.055798   0.000000  -0.028014   0.200467   0.000014
    23  O    0.000000   0.000000   0.000000  -0.017551   0.055090  -0.000003
    24  C    0.000315  -0.000174  -0.000769  -0.099935  -0.099935   0.329080
    25  C   -0.000004  -0.098670  -0.000009   0.001894   0.001894   0.000003
    26  C    0.000008   0.000013  -0.000028   0.001582   0.001582  -0.099306
    27  H    0.000004   0.000000   0.000000   0.000051   0.000051  -0.001871
    28  H   -0.000001   0.000000  -0.000001   0.001542  -0.000038   0.003592
    29  H    0.000000   0.000000   0.000000  -0.000038   0.001542   0.001415
    30  H    0.000000  -0.001864   0.000000   0.000176   0.000176   0.000004
    31  H    0.000000   0.003600  -0.000001   0.001616   0.000038  -0.000001
    32  H    0.000000   0.001416   0.000000   0.000038   0.001616   0.000000
    33  H    0.000000   0.000000   0.000000   0.000705  -0.004567   0.000000
    34  H    0.000000   0.000000   0.000000   0.000705  -0.004567   0.000000
    35  H    0.000452   0.000084   0.260544  -0.004567   0.000705   0.000003
    36  H    0.000084   0.000452   0.260544  -0.004567   0.000705   0.000000
             19         20         21         22         23         24
     1  C   -0.000174   0.002485  -0.000133   0.000315  -0.000769  -0.000738
     2  C    0.000013  -0.000557  -0.000005   0.000008  -0.000028  -0.000012
     3  C    0.336285  -0.000713  -0.000123  -0.000136  -0.000926   0.002485
     4  C   -0.098670  -0.000012   0.000010  -0.000004  -0.000009  -0.000529
     5  H    0.000000  -0.000002   0.000000   0.000004   0.000000   0.000000
     6  H    0.000000   0.000006   0.000000  -0.000001  -0.000001   0.000000
     7  H    0.000000   0.000006   0.000000   0.000000   0.000000   0.000000
     8  H   -0.001864   0.000000   0.000000   0.000000   0.000000   0.000002
     9  H    0.003600   0.000000   0.000000   0.000000  -0.000001   0.000004
    10  H    0.001416   0.000000   0.000000   0.000000   0.000000   0.000004
    11  O    0.000014  -0.000123  -0.000014   0.000012  -0.000003  -0.000133
    12  O   -0.002209  -0.000123  -0.001252  -0.002196  -0.002071  -0.000133
    13  O   -0.055798  -0.000136   0.000012  -0.000014   0.000000   0.000315
    14  O   -0.000014   0.336285   0.000014  -0.055798   0.000000  -0.000174
    15  O    0.000000  -0.000926  -0.000003   0.000000   0.000000  -0.000769
    16  Rh  -0.028014  -0.099315  -0.030737  -0.028014  -0.017551  -0.099935
    17  Rh   0.200467  -0.099315   0.206327   0.200467   0.055090  -0.099935
    18  O    0.000012   0.000348  -0.053997   0.000014  -0.000003   0.329080
    19  O    7.959794  -0.000136  -0.002196  -0.001261  -0.003137   0.000315
    20  C   -0.000136   4.890411   0.000348   0.336285  -0.000926   0.002503
    21  O   -0.002196   0.000348   7.950749  -0.002209  -0.002071   0.329080
    22  O   -0.001261   0.336285  -0.002209   7.959794  -0.003137  -0.000174
    23  O   -0.003137  -0.000926  -0.002071  -0.003137   8.138408  -0.000769
    24  C    0.000315   0.002503   0.329080  -0.000174  -0.000769   4.915428
    25  C   -0.000004   0.258281   0.000003  -0.098670  -0.000009  -0.000567
    26  C    0.000008  -0.000517  -0.099306   0.000013  -0.000028   0.255473
    27  H    0.000004   0.000002  -0.001871   0.000000   0.000000  -0.021967
    28  H    0.000000   0.000005   0.001415   0.000000   0.000000  -0.022614
    29  H   -0.000001   0.000005   0.003592   0.000000  -0.000001  -0.022614
    30  H    0.000000  -0.022041   0.000004  -0.001864   0.000000  -0.000005
    31  H    0.000000  -0.022861   0.000000   0.001416   0.000000   0.000005
    32  H    0.000000  -0.022861  -0.000001   0.003600  -0.000001   0.000005
    33  H    0.000084   0.000069   0.000000   0.000452   0.260544   0.000034
    34  H    0.000452   0.000023   0.000003   0.000084   0.260544   0.000037
    35  H    0.000000   0.000023   0.000000   0.000000   0.000000   0.000037
    36  H    0.000000   0.000069   0.000000   0.000000   0.000000   0.000034
             25         26         27         28         29         30
     1  C   -0.000529  -0.000012   0.000000   0.000000   0.000000   0.000002
     2  C    0.000028   0.000000   0.000000   0.000000   0.000000   0.000000
     3  C   -0.000012  -0.000557  -0.000002   0.000006   0.000006   0.000000
     4  C    0.000000   0.000028  -0.000002   0.000000   0.000000   0.000000
     5  H   -0.000002   0.000000   0.000000   0.000000   0.000000   0.000000
     6  H    0.000000   0.000000   0.000000   0.000000   0.000000   0.000000
     7  H    0.000000   0.000000   0.000000   0.000000   0.000000   0.000000
     8  H    0.000000   0.000000   0.000000   0.000000   0.000000   0.000000
     9  H    0.000000  -0.000001   0.000000   0.000000   0.000000   0.000000
    10  H    0.000000  -0.000001   0.000000   0.000000   0.000000   0.000000
    11  O    0.000010  -0.000005   0.000000   0.000000   0.000000   0.000000
    12  O    0.000010  -0.000005   0.000000   0.000000   0.000000   0.000000
    13  O   -0.000004   0.000008   0.000004  -0.000001   0.000000   0.000000
    14  O   -0.098670   0.000013   0.000000   0.000000   0.000000  -0.001864
    15  O   -0.000009  -0.000028   0.000000  -0.000001   0.000000   0.000000
    16  Rh   0.001894   0.001582   0.000051   0.001542  -0.000038   0.000176
    17  Rh   0.001894   0.001582   0.000051  -0.000038   0.001542   0.000176
    18  O    0.000003  -0.099306  -0.001871   0.003592   0.001415   0.000004
    19  O   -0.000004   0.000008   0.000004   0.000000  -0.000001   0.000000
    20  C    0.258281  -0.000517   0.000002   0.000005   0.000005  -0.022041
    21  O    0.000003  -0.099306  -0.001871   0.001415   0.003592   0.000004
    22  O   -0.098670   0.000013   0.000000   0.000000   0.000000  -0.001864
    23  O   -0.000009  -0.000028   0.000000   0.000000  -0.000001   0.000000
    24  C   -0.000567   0.255473  -0.021967  -0.022614  -0.022614  -0.000005
    25  C    5.615853   0.000028   0.000000  -0.000001  -0.000001   0.364503
    26  C    0.000028   5.620453   0.364698   0.354858   0.354858  -0.000002
    27  H    0.000000   0.364698   0.459626  -0.018944  -0.018944   0.000000
    28  H   -0.000001   0.354858  -0.018944   0.459019  -0.019539   0.000000
    29  H   -0.000001   0.354858  -0.018944  -0.019539   0.459019   0.000000
    30  H    0.364503  -0.000002   0.000000   0.000000   0.000000   0.458082
    31  H    0.354967   0.000000   0.000000   0.000000   0.000000  -0.019026
    32  H    0.354967   0.000000   0.000000   0.000000   0.000000  -0.019026
    33  H   -0.000006   0.000000   0.000000   0.000000   0.000000   0.000000
    34  H    0.000000   0.000000   0.000000   0.000000   0.000000   0.000000
    35  H    0.000000   0.000000   0.000000   0.000000   0.000000   0.000000
    36  H   -0.000006   0.000000   0.000000   0.000000   0.000000   0.000000
             31         32         33         34         35         36
     1  C    0.000004   0.000004   0.000037   0.000034   0.000034   0.000037
     2  C   -0.000001  -0.000001   0.000000   0.000000   0.000000   0.000000
     3  C    0.000000   0.000000   0.000023   0.000069   0.000069   0.000023
     4  C    0.000000   0.000000   0.000000  -0.000006  -0.000006   0.000000
     5  H    0.000000   0.000000   0.000000   0.000000   0.000000   0.000000
     6  H    0.000000   0.000000   0.000000   0.000000   0.000000   0.000000
     7  H    0.000000   0.000000   0.000000   0.000000   0.000000   0.000000
     8  H    0.000000   0.000000   0.000000   0.000000   0.000000   0.000000
     9  H    0.000000   0.000000   0.000000   0.000000   0.000000   0.000000
    10  H    0.000000   0.000000   0.000000   0.000000   0.000000   0.000000
    11  O    0.000000   0.000000   0.000000   0.000000   0.000000   0.000003
    12  O    0.000000   0.000000   0.000003   0.000000   0.000000   0.000000
    13  O    0.000000   0.000000   0.000000   0.000000   0.000452   0.000084
    14  O    0.003600   0.001416   0.000000   0.000000   0.000084   0.000452
    15  O   -0.000001   0.000000   0.000000   0.000000   0.260544   0.260544
    16  Rh   0.001616   0.000038   0.000705   0.000705  -0.004567  -0.004567
    17  Rh   0.000038   0.001616  -0.004567  -0.004567   0.000705   0.000705
    18  O   -0.000001   0.000000   0.000000   0.000000   0.000003   0.000000
    19  O    0.000000   0.000000   0.000084   0.000452   0.000000   0.000000
    20  C   -0.022861  -0.022861   0.000069   0.000023   0.000023   0.000069
    21  O    0.000000  -0.000001   0.000000   0.000003   0.000000   0.000000
    22  O    0.001416   0.003600   0.000452   0.000084   0.000000   0.000000
    23  O    0.000000  -0.000001   0.260544   0.260544   0.000000   0.000000
    24  C    0.000005   0.000005   0.000034   0.000037   0.000037   0.000034
    25  C    0.354967   0.354967  -0.000006   0.000000   0.000000  -0.000006
    26  C    0.000000   0.000000   0.000000   0.000000   0.000000   0.000000
    27  H    0.000000   0.000000   0.000000   0.000000   0.000000   0.000000
    28  H    0.000000   0.000000   0.000000   0.000000   0.000000   0.000000
    29  H    0.000000   0.000000   0.000000   0.000000   0.000000   0.000000
    30  H   -0.019026  -0.019026   0.000000   0.000000   0.000000   0.000000
    31  H    0.459365  -0.019432   0.000000   0.000000   0.000000   0.000000
    32  H   -0.019432   0.459364   0.000000   0.000000   0.000000   0.000000
    33  H    0.000000   0.000000   0.358472  -0.029061   0.000000   0.000000
    34  H    0.000000   0.000000  -0.029061   0.358472   0.000000   0.000000
    35  H    0.000000   0.000000   0.000000   0.000000   0.358472  -0.029061
    36  H    0.000000   0.000000   0.000000   0.000000  -0.029061   0.358472
 Mulliken atomic charges:
              1
     1  C    0.436228
     2  C   -0.753835
     3  C    0.443409
     4  C   -0.753951
     5  H    0.239165
     6  H    0.240700
     7  H    0.240700
     8  H    0.240883
     9  H    0.240309
    10  H    0.240309
    11  O   -0.297639
    12  O   -0.297638
    13  O   -0.308990
    14  O   -0.308990
    15  O   -0.683149
    16  Rh   0.256066
    17  Rh   0.256067
    18  O   -0.297637
    19  O   -0.308989
    20  C    0.443409
    21  O   -0.297639
    22  O   -0.308989
    23  O   -0.683149
    24  C    0.436228
    25  C   -0.753951
    26  C   -0.753835
    27  H    0.239165
    28  H    0.240700
    29  H    0.240700
    30  H    0.240883
    31  H    0.240309
    32  H    0.240309
    33  H    0.413211
    34  H    0.413211
    35  H    0.413211
    36  H    0.413211
 Sum of Mulliken atomic charges =   0.00000
 Mulliken charges with hydrogens summed into heavy atoms:
              1
     1  C    0.436228
     2  C   -0.033271
     3  C    0.443409
     4  C   -0.032451
    11  O   -0.297639
    12  O   -0.297638
    13  O   -0.308990
    14  O   -0.308990
    15  O    0.143274
    16  Rh   0.256066
    17  Rh   0.256067
    18  O   -0.297637
    19  O   -0.308989
    20  C    0.443409
    21  O   -0.297639
    22  O   -0.308989
    23  O    0.143274
    24  C    0.436228
    25  C   -0.032451
    26  C   -0.033271
 Sum of Mulliken charges with hydrogens summed into heavy atoms =   0.00000
 APT atomic charges:
              1
     1  C    0.757458
     2  C   -0.091128
     3  C    0.764035
     4  C   -0.090329
     5  H    0.018683
     6  H    0.025972
     7  H    0.025972
     8  H    0.019729
     9  H    0.026197
    10  H    0.026197
    11  O   -0.587458
    12  O   -0.587457
    13  O   -0.586614
    14  O   -0.586614
    15  O   -0.506239
    16  Rh   0.864295
    17  Rh   0.864296
    18  O   -0.587457
    19  O   -0.586614
    20  C    0.764035
    21  O   -0.587458
    22  O   -0.586614
    23  O   -0.506239
    24  C    0.757458
    25  C   -0.090329
    26  C   -0.091128
    27  H    0.018683
    28  H    0.025972
    29  H    0.025972
    30  H    0.019729
    31  H    0.026196
    32  H    0.026196
    33  H    0.253652
    34  H    0.253652
    35  H    0.253652
    36  H    0.253652
 Sum of APT charges=   0.00000
 APT Atomic charges with hydrogens summed into heavy atoms:
              1
     1  C    0.757458
     2  C   -0.020502
     3  C    0.764035
     4  C   -0.018207
     5  H    0.000000
     6  H    0.000000
     7  H    0.000000
     8  H    0.000000
     9  H    0.000000
    10  H    0.000000
    11  O   -0.587458
    12  O   -0.587457
    13  O   -0.586614
    14  O   -0.586614
    15  O    0.001064
    16  Rh   0.864295
    17  Rh   0.864296
    18  O   -0.587457
    19  O   -0.586614
    20  C    0.764035
    21  O   -0.587458
    22  O   -0.586614
    23  O    0.001064
    24  C    0.757458
    25  C   -0.018207
    26  C   -0.020501
    27  H    0.000000
    28  H    0.000000
    29  H    0.000000
    30  H    0.000000
    31  H    0.000000
    32  H    0.000000
    33  H    0.000000
    34  H    0.000000
    35  H    0.000000
    36  H    0.000000
 Sum of APT charges=   0.00000
 Electronic spatial extent (au):  <R**2>=           5767.4842
 Charge=              0.0000 electrons
 Dipole moment (field-independent basis, Debye):
    X=              0.0000    Y=              0.0000    Z=              0.0000  Tot=              0.0000
 Quadrupole moment (field-independent basis, Debye-Ang):
   XX=           -126.5971   YY=           -134.2240   ZZ=           -112.5803
   XY=              0.0707   XZ=              0.0000   YZ=              0.0000
 Traceless Quadrupole moment (field-independent basis, Debye-Ang):
   XX=             -2.1300   YY=             -9.7569   ZZ=             11.8868
   XY=              0.0707   XZ=              0.0000   YZ=              0.0000
 Octapole moment (field-independent basis, Debye-Ang**2):
  XXX=              0.0000  YYY=              0.0000  ZZZ=              0.0000  XYY=              0.0000
  XXY=              0.0000  XXZ=              0.0000  XZZ=              0.0000  YZZ=              0.0000
  YYZ=              0.0000  XYZ=              0.0000
 Hexadecapole moment (field-independent basis, Debye-Ang**3):
 XXXX=          -2398.2808 YYYY=          -2408.0001 ZZZZ=           -801.4195 XXXY=              3.4029
 XXXZ=              0.0000 YYYX=             -3.4321 YYYZ=              0.0002 ZZZX=              0.0000
 ZZZY=             -0.0004 XXYY=           -883.6007 XXZZ=           -731.5916 YYZZ=           -846.1379
 XXYZ=              0.0000 YYXZ=              0.0000 ZZXY=              0.5763
 N-N= 2.357743373204D+03 E-N=-7.687369354853D+03  KE= 1.137545888788D+03
  Exact polarizability: 209.518   0.042 205.436   0.000   0.000 182.316
 Approx polarizability: 352.096   0.118 344.470   0.000   0.000 527.459
 No NMR shielding tensors so no spin-rotation constants.
 Leave Link  601 at Sun Nov 24 23:14:06 2013, MaxMem=   33554432 cpu:       0.8
 (Enter /net/cottusp/opt/gaussian/g09revA02_amd64/g09/l701.exe)
 Compute integral second derivatives.
 ... and contract with generalized density number  0.
   1 Symmetry operations used in ECPInt.
 ECPInt:  NShTT=    9591 NPrTT=   68474 LenC2=    9592 LenP2D=   61192.
 LDataN:  DoStor=T MaxTD1= 7 Len=  274
 Leave Link  701 at Sun Nov 24 23:14:14 2013, MaxMem=   33554432 cpu:      14.3
 (Enter /net/cottusp/opt/gaussian/g09revA02_amd64/g09/l702.exe)
 L702 exits ... SP integral derivatives will be done elsewhere.
 Leave Link  702 at Sun Nov 24 23:14:14 2013, MaxMem=   33554432 cpu:       0.0
 (Enter /net/cottusp/opt/gaussian/g09revA02_amd64/g09/l703.exe)
 Compute integral second derivatives, UseDBF=F ICtDFT=           0.
 Integral derivatives from FoFDir, PRISM(SPDF).
 Calling FoFJK, ICntrl=    100527 FMM=F ISym2X=0 I1Cent= 0 IOpClX= 0 NMat=1 NMatS=1 NMatT=0.
 FoFCou: FMM=F IPFlag=           0 FMFlag=      100000 FMFlg1=         800
         NFxFlg=           0 DoJE=F BraDBF=F KetDBF=F FulRan=T
         Omega=  0.000000  0.000000  1.000000  0.000000  0.000000 ICntrl=  100527 IOpCl=  0
         NMat0=    1 NMatS0=    1 NMatT0=    0 NMatD0=    1 NMtDS0=    0 NMtDT0=    0
         I1Cent=           0 NGrid=           0.
 Symmetry not used in FoFCou.
 Defaulting to unpruned grid for atomic number  45.
 Defaulting to unpruned grid for atomic number  45.
 Leave Link  703 at Sun Nov 24 23:32:55 2013, MaxMem=   33554432 cpu:    2241.3
 (Enter /net/cottusp/opt/gaussian/g09revA02_amd64/g09/l716.exe)
 Dipole        =-4.80640958D-10 3.24387459D-09 3.02421606D-06
 Polarizability= 2.09517555D+02 4.21414048D-02 2.05435943D+02
                 2.99243625D-07-1.10589826D-05 1.82316394D+02
 HyperPolar    =-5.21432150D-07-1.00016978D-07 6.09487381D-07
                 4.62955799D-08-4.34381065D-05 6.42766285D-07
                -7.51091397D-06 2.15045492D-07 3.13898835D-08
                -1.52531798D-04
 Full mass-weighted force constant matrix:
 Low frequencies --- -352.6154 -344.6773   -0.0007   -0.0007    0.0006    8.2924
 Low frequencies ---    8.3038   10.7026   31.4213
 ******    2 imaginary frequencies (negative Signs) ****** 
 Diagonal vibrational polarizability:
      221.4062786     206.4170980      35.5833501
 Diagonal vibrational hyperpolarizability:
       -0.0000444      -0.0000925      -0.0000690
 Harmonic frequencies (cm**-1), IR intensities (KM/Mole), Raman scattering
 activities (A**4/AMU), depolarization ratios for plane and unpolarized
 incident light, reduced masses (AMU), force constants (mDyne/A),
 and normal coordinates:
                           1         2         3         4         5
                           A         A         A         A         A
       Frequencies ---  -352.6154 -344.6773   31.4213   32.8250   33.3959
    Reduced masses ---     1.1538    1.1503    1.0093    1.0121    1.0127
   Force constants ---     0.0845    0.0805    0.0006    0.0006    0.0007
    IR Intensities ---     0.0000  661.3752    0.0020    0.0000    0.0000
  Raman Activities ---    17.5356    0.0000    0.0000    1.0697    1.1216
    Depol. (Plane) ---     0.7500    0.7500    0.7500    0.7500    0.7500
    Depol. (Unpol) ---     0.8571    0.8571    0.8571    0.8571    0.8571
 Coord Atom Element:
   1     1     6          0.00000  -0.00019   0.00000   0.00000   0.00000
   2     1     6          0.00000  -0.00323   0.00000   0.00000   0.00000
   3     1     6         -0.00120   0.00000  -0.00142   0.00364  -0.00385
   1     2     6          0.00000   0.00028   0.00000   0.00000   0.00000
   2     2     6          0.00000  -0.00302   0.00000   0.00000   0.00000
   3     2     6          0.00006   0.00000   0.00490  -0.00367  -0.00579
   1     3     6          0.00000   0.00007   0.00000   0.00000   0.00000
   2     3     6          0.00000  -0.00209   0.00000   0.00000   0.00000
   3     3     6          0.00007   0.00000   0.00116  -0.00376  -0.00296
   1     4     6          0.00000  -0.00012   0.00000   0.00000   0.00000
   2     4     6          0.00000   0.00052   0.00000   0.00000   0.00000
   3     4     6         -0.00011   0.00000  -0.00467  -0.00564   0.00564
   1     5     1          0.00000   0.00020   0.00000   0.00000   0.00000
   2     5     1          0.00000  -0.00356   0.00000   0.00000   0.00000
   3     5     1          0.00195   0.00000   0.33480  -0.43287   0.00013
   1     6     1         -0.00063  -0.00002   0.26871  -0.34973   0.00506
   2     6     1         -0.00303  -0.00443   0.00336  -0.00496   0.00132
   3     6     1          0.00152   0.00071  -0.13890   0.18372  -0.00905
   1     7     1          0.00063  -0.00002  -0.26871   0.34973  -0.00506
   2     7     1          0.00303  -0.00443  -0.00336   0.00496  -0.00132
   3     7     1          0.00152  -0.00071  -0.13890   0.18372  -0.00905
   1     8     1          0.00000  -0.00359   0.00000   0.00000   0.00000
   2     8     1          0.00000   0.00147   0.00000   0.00000   0.00000
   3     8     1          0.00072   0.00000  -0.27917   0.00024   0.43438
   1     9     1          0.00037   0.00166  -0.00234   0.00127   0.00403
   2     9     1          0.00031   0.00242   0.22385  -0.00504  -0.34980
   3     9     1         -0.00011   0.00031   0.11508  -0.00886  -0.18164
   1    10     1         -0.00037   0.00166   0.00234  -0.00127  -0.00403
   2    10     1         -0.00031   0.00242  -0.22385   0.00504   0.34980
   3    10     1         -0.00011  -0.00031   0.11508  -0.00886  -0.18164
   1    11     8          0.00002  -0.00004  -0.00175  -0.00037  -0.00021
   2    11     8          0.00041  -0.00253   0.00009   0.00026  -0.00151
   3    11     8         -0.00565  -0.00035  -0.00137   0.00342  -0.00305
   1    12     8         -0.00002  -0.00004   0.00175   0.00037   0.00021
   2    12     8         -0.00041  -0.00253  -0.00009  -0.00026   0.00151
   3    12     8         -0.00565   0.00036  -0.00137   0.00342  -0.00305
   1    13     8         -0.00004   0.00005  -0.00015  -0.00148   0.00010
   2    13     8          0.00476  -0.00305  -0.00029   0.00028  -0.00037
   3    13     8          0.00008  -0.00001   0.00114  -0.00297  -0.00285
   1    14     8         -0.00004   0.00005   0.00015  -0.00148   0.00010
   2    14     8          0.00476  -0.00305   0.00029   0.00028  -0.00037
   3    14     8         -0.00008   0.00001   0.00114   0.00297   0.00285
   1    15     8          0.00039  -0.00039   0.00000  -0.00525  -0.00440
   2    15     8         -0.06899   0.06841   0.00000   0.00122  -0.00497
   3    15     8          0.00000   0.00000  -0.00002   0.00000   0.00000
   1    16    45         -0.00001   0.00000   0.00000  -0.00146   0.00025
   2    16    45          0.00002   0.00182   0.00000  -0.00007  -0.00147
   3    16    45          0.00000   0.00000   0.00000   0.00000   0.00000
   1    17    45          0.00001   0.00000   0.00000   0.00146  -0.00025
   2    17    45         -0.00002   0.00182   0.00000   0.00007   0.00147
   3    17    45          0.00000   0.00000   0.00000   0.00000   0.00000
   1    18     8          0.00002  -0.00004   0.00175  -0.00037  -0.00021
   2    18     8          0.00041  -0.00253  -0.00009   0.00026  -0.00151
   3    18     8          0.00565   0.00035  -0.00137  -0.00342   0.00305
   1    19     8          0.00004   0.00005   0.00015   0.00148  -0.00010
   2    19     8         -0.00476  -0.00305   0.00029  -0.00028   0.00037
   3    19     8          0.00008   0.00001   0.00114  -0.00297  -0.00285
   1    20     6          0.00000   0.00007   0.00000   0.00000   0.00000
   2    20     6          0.00000  -0.00209   0.00000   0.00000   0.00000
   3    20     6         -0.00007   0.00000   0.00116   0.00376   0.00296
   1    21     8         -0.00002  -0.00004  -0.00175   0.00037   0.00021
   2    21     8         -0.00041  -0.00253   0.00009  -0.00026   0.00151
   3    21     8          0.00565  -0.00036  -0.00137  -0.00342   0.00305
   1    22     8          0.00004   0.00005  -0.00015   0.00148  -0.00010
   2    22     8         -0.00476  -0.00305  -0.00029  -0.00028   0.00037
   3    22     8         -0.00008  -0.00001   0.00114   0.00297   0.00285
   1    23     8         -0.00039  -0.00039   0.00000   0.00525   0.00440
   2    23     8          0.06900   0.06841   0.00000  -0.00122   0.00497
   3    23     8          0.00000   0.00000  -0.00002   0.00000   0.00000
   1    24     6          0.00000  -0.00019   0.00000   0.00000   0.00000
   2    24     6          0.00000  -0.00323   0.00000   0.00000   0.00000
   3    24     6          0.00120   0.00000  -0.00142  -0.00364   0.00385
   1    25     6          0.00000  -0.00012   0.00000   0.00000   0.00000
   2    25     6          0.00000   0.00052   0.00000   0.00000   0.00000
   3    25     6          0.00011   0.00000  -0.00467   0.00564  -0.00564
   1    26     6          0.00000   0.00028   0.00000   0.00000   0.00000
   2    26     6          0.00000  -0.00302   0.00000   0.00000   0.00000
   3    26     6         -0.00006   0.00000   0.00490   0.00367   0.00579
   1    27     1          0.00000   0.00020   0.00000   0.00000   0.00000
   2    27     1          0.00000  -0.00356   0.00000   0.00000   0.00000
   3    27     1         -0.00195   0.00000   0.33482   0.43287  -0.00012
   1    28     1          0.00063  -0.00002   0.26873   0.34973  -0.00506
   2    28     1          0.00303  -0.00443   0.00336   0.00496  -0.00132
   3    28     1         -0.00152   0.00071  -0.13890  -0.18372   0.00904
   1    29     1         -0.00063  -0.00002  -0.26873  -0.34973   0.00506
   2    29     1         -0.00303  -0.00443  -0.00336  -0.00496   0.00132
   3    29     1         -0.00152  -0.00071  -0.13890  -0.18372   0.00904
   1    30     1          0.00000  -0.00359   0.00000   0.00000   0.00000
   2    30     1          0.00000   0.00147   0.00000   0.00000   0.00000
   3    30     1         -0.00072   0.00000  -0.27917  -0.00023  -0.43437
   1    31     1         -0.00037   0.00166  -0.00234  -0.00127  -0.00403
   2    31     1         -0.00031   0.00242   0.22385   0.00502   0.34980
   3    31     1          0.00011   0.00031   0.11507   0.00885   0.18164
   1    32     1          0.00037   0.00166   0.00234   0.00127   0.00403
   2    32     1          0.00031   0.00242  -0.22385  -0.00502  -0.34980
   3    32     1          0.00011  -0.00031   0.11507   0.00885   0.18164
   1    33     1          0.00292   0.00292   0.00008   0.00628   0.00677
   2    33     1         -0.49756  -0.49755  -0.00909  -0.00177   0.00608
   3    33     1          0.00004   0.00004   0.00001   0.00159   0.00363
   1    34     1          0.00292   0.00292  -0.00008   0.00628   0.00677
   2    34     1         -0.49756  -0.49755   0.00909  -0.00177   0.00608
   3    34     1         -0.00004  -0.00004   0.00001  -0.00159  -0.00363
   1    35     1         -0.00292   0.00292   0.00008  -0.00628  -0.00677
   2    35     1          0.49751  -0.49759  -0.00909   0.00177  -0.00608
   3    35     1         -0.00004   0.00004   0.00001  -0.00159  -0.00363
   1    36     1         -0.00292   0.00292  -0.00008  -0.00628  -0.00677
   2    36     1          0.49751  -0.49759   0.00909   0.00177  -0.00608
   3    36     1          0.00004  -0.00004   0.00001   0.00159   0.00363
                           6         7         8         9        10
                           A         A         A         A         A
       Frequencies ---    34.5864   57.4207   59.6222   64.7534   64.9999
    Reduced masses ---     1.0215    3.3759    2.8885    3.3538    1.3102
   Force constants ---     0.0007    0.0066    0.0060    0.0083    0.0033
    IR Intensities ---     0.6157   13.3495    0.0000    0.0000    0.0029
  Raman Activities ---     0.0000    0.0000   13.5538    1.6189    0.0000
    Depol. (Plane) ---     0.7500    0.7499    0.7500    0.7500    0.7494
    Depol. (Unpol) ---     0.8571    0.8571    0.8571    0.8571    0.8567
 Coord Atom Element:
   1     1     6          0.00000  -0.05818   0.07799   0.00000   0.00000
   2     1     6          0.00000  -0.00060   0.00059   0.00000   0.00000
   3     1     6          0.00152   0.00000   0.00000  -0.00006  -0.00005
   1     2     6          0.00000  -0.14123   0.18310   0.00000   0.00000
   2     2     6          0.00000  -0.00364   0.00436   0.00000   0.00000
   3     2     6         -0.00370   0.00000   0.00000   0.00003   0.00140
   1     3     6          0.00000  -0.00321  -0.00060   0.00000   0.00000
   2     3     6          0.00000   0.00101   0.07562   0.00000   0.00000
   3     3     6          0.00160   0.00000   0.00000  -0.07150   0.00049
   1     4     6          0.00000  -0.00332  -0.00441   0.00000   0.00000
   2     4     6          0.00000   0.00326   0.17989   0.00000   0.00000
   3     4     6         -0.00540   0.00000   0.00000  -0.10852   0.00186
   1     5     1          0.00000  -0.16044   0.20695   0.00000   0.00000
   2     5     1          0.00000  -0.06482   0.08008   0.00000   0.00000
   3     5     1         -0.27785   0.00000   0.00000  -0.00291  -0.01506
   1     6     1         -0.22369  -0.16445   0.21142  -0.00163  -0.01189
   2     6     1         -0.00286   0.02447  -0.03036  -0.00002  -0.00154
   3     6     1          0.11606   0.00017   0.00002   0.00085   0.00822
   1     7     1          0.22369  -0.16445   0.21141   0.00164   0.01188
   2     7     1          0.00286   0.02447  -0.03036   0.00002   0.00154
   3     7     1          0.11606  -0.00017  -0.00002   0.00085   0.00822
   1     8     1          0.00000  -0.00464  -0.07964   0.00000   0.00000
   2     8     1          0.00000   0.00368   0.20354   0.00000   0.00000
   3     8     1         -0.33476   0.00000   0.00000  -0.09035  -0.02730
   1     9     1         -0.00287  -0.00210   0.03010   0.02237  -0.00141
   2     9     1          0.26902   0.00350   0.20811  -0.02098   0.02292
   3     9     1          0.13857  -0.00037   0.00000  -0.12956   0.01439
   1    10     1          0.00287  -0.00210   0.03010  -0.02237   0.00141
   2    10     1         -0.26902   0.00350   0.20811   0.02099  -0.02293
   3    10     1          0.13857   0.00037   0.00000  -0.12956   0.01439
   1    11     8          0.01010  -0.02746   0.03902  -0.00888  -0.03678
   2    11     8          0.00000  -0.00014   0.00000  -0.00010   0.00005
   3    11     8          0.00151  -0.00004   0.00004  -0.00009  -0.00031
   1    12     8         -0.01010  -0.02745   0.03902   0.00889   0.03678
   2    12     8          0.00000  -0.00014   0.00000   0.00010  -0.00005
   3    12     8          0.00151   0.00004  -0.00004  -0.00009  -0.00031
   1    13     8         -0.00011  -0.00508   0.00000  -0.02302  -0.00005
   2    13     8         -0.01011   0.00033   0.03669  -0.00020   0.06073
   3    13     8          0.00162   0.00144  -0.00004  -0.06250   0.00015
   1    14     8          0.00011  -0.00508   0.00000  -0.02302   0.00005
   2    14     8          0.01011   0.00033  -0.03669  -0.00020  -0.06073
   3    14     8          0.00162  -0.00144  -0.00004   0.06250   0.00015
   1    15     8          0.00000   0.24502   0.00000   0.23538   0.00000
   2    15     8          0.00000   0.00099   0.00000   0.00112   0.00000
   3    15     8          0.00122   0.00000   0.00000   0.00000  -0.00031
   1    16    45          0.00000  -0.00620   0.00000  -0.01458   0.00000
   2    16    45          0.00000  -0.00019   0.00000  -0.00013   0.00000
   3    16    45          0.00052   0.00000   0.00000   0.00000  -0.00035
   1    17    45          0.00000  -0.00620   0.00000   0.01458   0.00000
   2    17    45          0.00000  -0.00019   0.00000   0.00013   0.00000
   3    17    45          0.00052   0.00000   0.00000   0.00000  -0.00035
   1    18     8         -0.01010  -0.02745  -0.03902  -0.00888   0.03678
   2    18     8          0.00000  -0.00014   0.00000  -0.00010  -0.00005
   3    18     8          0.00151   0.00004   0.00004   0.00009  -0.00031
   1    19     8          0.00011  -0.00508   0.00000   0.02302   0.00005
   2    19     8          0.01011   0.00033   0.03669   0.00020  -0.06073
   3    19     8          0.00162  -0.00144   0.00004  -0.06250   0.00015
   1    20     6          0.00000  -0.00321   0.00060   0.00000   0.00000
   2    20     6          0.00000   0.00101  -0.07562   0.00000   0.00000
   3    20     6          0.00160   0.00000   0.00000   0.07150   0.00049
   1    21     8          0.01010  -0.02746  -0.03902   0.00888  -0.03678
   2    21     8          0.00000  -0.00014   0.00000   0.00010   0.00005
   3    21     8          0.00151  -0.00004  -0.00004   0.00009  -0.00031
   1    22     8         -0.00011  -0.00508   0.00000   0.02302  -0.00005
   2    22     8         -0.01011   0.00033  -0.03669   0.00020   0.06073
   3    22     8          0.00162   0.00144   0.00004   0.06250   0.00015
   1    23     8          0.00000   0.24502   0.00000  -0.23538   0.00000
   2    23     8          0.00000   0.00099   0.00000  -0.00112   0.00000
   3    23     8          0.00122   0.00000   0.00000   0.00000  -0.00031
   1    24     6          0.00000  -0.05818  -0.07799   0.00000   0.00000
   2    24     6          0.00000  -0.00060  -0.00059   0.00000   0.00000
   3    24     6          0.00152   0.00000   0.00000   0.00006  -0.00005
   1    25     6          0.00000  -0.00332   0.00441   0.00000   0.00000
   2    25     6          0.00000   0.00326  -0.17989   0.00000  -0.00001
   3    25     6         -0.00540   0.00000   0.00000   0.10852   0.00186
   1    26     6          0.00000  -0.14123  -0.18310   0.00000  -0.00001
   2    26     6          0.00000  -0.00364  -0.00436   0.00000   0.00000
   3    26     6         -0.00370   0.00000   0.00000  -0.00003   0.00140
   1    27     1          0.00000  -0.16044  -0.20694   0.00000  -0.00001
   2    27     1          0.00000  -0.06482  -0.08008   0.00000   0.00000
   3    27     1         -0.27784   0.00000   0.00000   0.00291  -0.01506
   1    28     1         -0.22369  -0.16445  -0.21141   0.00163  -0.01190
   2    28     1         -0.00286   0.02447   0.03036   0.00002  -0.00154
   3    28     1          0.11606   0.00017  -0.00002  -0.00085   0.00822
   1    29     1          0.22369  -0.16445  -0.21141  -0.00163   0.01188
   2    29     1          0.00286   0.02447   0.03036  -0.00002   0.00154
   3    29     1          0.11606  -0.00017   0.00002  -0.00085   0.00822
   1    30     1          0.00000  -0.00464   0.07964   0.00000   0.00001
   2    30     1          0.00000   0.00368  -0.20354   0.00000  -0.00001
   3    30     1         -0.33477   0.00000   0.00000   0.09035  -0.02731
   1    31     1         -0.00287  -0.00210  -0.03010  -0.02237  -0.00141
   2    31     1          0.26903   0.00350  -0.20811   0.02098   0.02292
   3    31     1          0.13858  -0.00037   0.00000   0.12957   0.01438
   1    32     1          0.00287  -0.00210  -0.03010   0.02237   0.00141
   2    32     1         -0.26903   0.00350  -0.20811  -0.02099  -0.02293
   3    32     1          0.13858   0.00037   0.00000   0.12957   0.01438
   1    33     1          0.00007   0.36360   0.00153  -0.37613  -0.00286
   2    33     1         -0.00548   0.00151  -0.26445  -0.00206   0.49349
   3    33     1          0.00129   0.18066  -0.00001  -0.21433  -0.00031
   1    34     1         -0.00007   0.36360  -0.00153  -0.37613   0.00287
   2    34     1          0.00548   0.00154   0.26445  -0.00211  -0.49349
   3    34     1          0.00129  -0.18066  -0.00001   0.21433  -0.00031
   1    35     1          0.00007   0.36360  -0.00153   0.37613  -0.00287
   2    35     1         -0.00548   0.00151   0.26443   0.00209   0.49346
   3    35     1          0.00129   0.18066   0.00001   0.21433  -0.00031
   1    36     1         -0.00007   0.36360   0.00153   0.37613   0.00286
   2    36     1          0.00548   0.00154  -0.26443   0.00208  -0.49346
   3    36     1          0.00129  -0.18066   0.00001  -0.21433  -0.00030
                          11        12        13        14        15
                           A         A         A         A         A
       Frequencies ---    65.0419   68.2501   69.3116   73.3313   97.4200
    Reduced masses ---     3.5094    3.5497    3.5312    1.0876    5.7036
   Force constants ---     0.0087    0.0097    0.0100    0.0034    0.0319
    IR Intensities ---     1.2444   14.8028    0.0057    0.0000    9.0785
  Raman Activities ---     0.0000    0.0000    0.0000    1.6012    0.0000
    Depol. (Plane) ---     0.7424    0.7394    0.7488    0.7500    0.7499
    Depol. (Unpol) ---     0.8521    0.8502    0.8563    0.8571    0.8571
 Coord Atom Element:
   1     1     6          0.00225   0.07098  -0.00001  -0.00749   0.00065
   2     1     6         -0.03197   0.00088   0.00000  -0.00012  -0.04100
   3     1     6          0.00000   0.00000  -0.00085   0.00000   0.00000
   1     2     6          0.00629   0.25704  -0.00003  -0.03618   0.00107
   2     2     6         -0.03202   0.00763   0.00000  -0.00122  -0.04160
   3     2     6          0.00000   0.00000  -0.00563   0.00000   0.00000
   1     3     6         -0.00105  -0.04270   0.00000   0.00015  -0.00012
   2     3     6          0.09179  -0.00204   0.00000  -0.01036  -0.01004
   3     3     6          0.00000   0.00000  -0.00025   0.00000   0.00000
   1     4     6         -0.00844  -0.04287   0.00000   0.00155  -0.00211
   2     4     6          0.29157  -0.00545   0.00000  -0.04625   0.04332
   3     4     6          0.00000   0.00000  -0.00454   0.00000   0.00000
   1     5     1          0.00728   0.29987  -0.00003  -0.04312   0.00128
   2     5     1         -0.02886   0.14366  -0.00001  -0.02339  -0.04093
   3     5     1          0.00000   0.00001   0.05602   0.00000   0.00000
   1     6     1          0.00721   0.30827   0.04678  -0.04484   0.00132
   2     6     1         -0.03326  -0.05482   0.00454   0.00908  -0.04164
   3     6     1          0.00006  -0.00013  -0.03174   0.00014  -0.00008
   1     7     1          0.00721   0.30826  -0.04684  -0.04484   0.00132
   2     7     1         -0.03326  -0.05482  -0.00453   0.00908  -0.04164
   3     7     1         -0.00006   0.00012  -0.03174  -0.00014   0.00008
   1     8     1         -0.15497  -0.03992   0.00000   0.02919  -0.04146
   2     8     1          0.33760  -0.00637   0.00000  -0.05489   0.05573
   3     8     1          0.00000   0.00000   0.04784   0.00000   0.00000
   1     9     1          0.05890  -0.04358   0.00425  -0.01129   0.01589
   2     9     1          0.34707  -0.00642  -0.03891  -0.05705   0.05807
   3     9     1          0.00025  -0.00017  -0.02649  -0.00017   0.00001
   1    10     1          0.05890  -0.04358  -0.00424  -0.01129   0.01589
   2    10     1          0.34706  -0.00641   0.03892  -0.05705   0.05807
   3    10     1         -0.00024   0.00017  -0.02649   0.00017  -0.00001
   1    11     8          0.00094   0.00476   0.15973   0.00181   0.00051
   2    11     8         -0.03185  -0.00015  -0.00001   0.00003  -0.04214
   3    11     8         -0.00025   0.00011   0.00010  -0.00002   0.00213
   1    12     8          0.00095   0.00473  -0.15974   0.00180   0.00051
   2    12     8         -0.03185  -0.00015   0.00001   0.00003  -0.04214
   3    12     8          0.00025  -0.00011   0.00010   0.00002  -0.00213
   1    13     8          0.00009  -0.04379  -0.00004  -0.00003   0.00021
   2    13     8          0.01983  -0.00092  -0.12866   0.00127  -0.02827
   3    13     8         -0.00011   0.00076   0.00059   0.00003  -0.00005
   1    14     8          0.00009  -0.04379   0.00005   0.00003   0.00021
   2    14     8          0.01983  -0.00090   0.12866  -0.00127  -0.02827
   3    14     8          0.00011  -0.00076   0.00059   0.00003   0.00005
   1    15     8         -0.00042   0.11122  -0.00001   0.00000  -0.00200
   2    15     8         -0.05822   0.00092   0.00000   0.00000   0.37079
   3    15     8          0.00000   0.00000   0.00080  -0.00004   0.00000
   1    16    45          0.00002  -0.04479   0.00000   0.00000   0.00024
   2    16    45         -0.03238  -0.00011   0.00000   0.00000  -0.03845
   3    16    45          0.00000   0.00000   0.00108   0.00000   0.00000
   1    17    45          0.00002  -0.04479   0.00000   0.00000   0.00024
   2    17    45         -0.03238  -0.00011   0.00000   0.00000  -0.03845
   3    17    45          0.00000   0.00000   0.00108   0.00000   0.00000
   1    18     8          0.00095   0.00473  -0.15974  -0.00181   0.00051
   2    18     8         -0.03185  -0.00015   0.00001  -0.00003  -0.04214
   3    18     8          0.00025  -0.00011   0.00010  -0.00002  -0.00213
   1    19     8          0.00009  -0.04379   0.00005  -0.00003   0.00021
   2    19     8          0.01983  -0.00090   0.12866   0.00128  -0.02827
   3    19     8          0.00012  -0.00076   0.00059  -0.00003   0.00005
   1    20     6         -0.00105  -0.04270   0.00000  -0.00015  -0.00012
   2    20     6          0.09179  -0.00204   0.00000   0.01036  -0.01004
   3    20     6          0.00000   0.00000  -0.00025   0.00000   0.00000
   1    21     8          0.00094   0.00476   0.15973  -0.00180   0.00051
   2    21     8         -0.03185  -0.00015  -0.00001  -0.00003  -0.04214
   3    21     8         -0.00025   0.00011   0.00010   0.00002   0.00213
   1    22     8          0.00009  -0.04379  -0.00004   0.00003   0.00021
   2    22     8          0.01983  -0.00092  -0.12866  -0.00128  -0.02827
   3    22     8         -0.00012   0.00076   0.00059  -0.00003  -0.00005
   1    23     8         -0.00042   0.11122  -0.00001   0.00000  -0.00200
   2    23     8         -0.05822   0.00092   0.00000   0.00000   0.37079
   3    23     8          0.00000   0.00000   0.00080   0.00004   0.00000
   1    24     6          0.00225   0.07098  -0.00001   0.00749   0.00065
   2    24     6         -0.03197   0.00088   0.00000   0.00012  -0.04100
   3    24     6          0.00000   0.00000  -0.00085   0.00000   0.00000
   1    25     6         -0.00844  -0.04287   0.00000  -0.00155  -0.00211
   2    25     6          0.29157  -0.00545   0.00000   0.04625   0.04332
   3    25     6          0.00000   0.00000  -0.00454   0.00000   0.00000
   1    26     6          0.00629   0.25705  -0.00003   0.03618   0.00107
   2    26     6         -0.03202   0.00763   0.00000   0.00122  -0.04160
   3    26     6          0.00000   0.00000  -0.00563   0.00000   0.00000
   1    27     1          0.00728   0.29987  -0.00004   0.04312   0.00128
   2    27     1         -0.02886   0.14366  -0.00002   0.02339  -0.04093
   3    27     1          0.00000   0.00001   0.05603   0.00000   0.00000
   1    28     1          0.00721   0.30827   0.04677   0.04484   0.00132
   2    28     1         -0.03326  -0.05482   0.00454  -0.00908  -0.04164
   3    28     1          0.00006  -0.00013  -0.03174  -0.00014  -0.00008
   1    29     1          0.00721   0.30826  -0.04685   0.04484   0.00132
   2    29     1         -0.03326  -0.05482  -0.00452  -0.00908  -0.04164
   3    29     1         -0.00006   0.00012  -0.03174   0.00014   0.00008
   1    30     1         -0.15497  -0.03992   0.00001  -0.02919  -0.04146
   2    30     1          0.33760  -0.00637   0.00000   0.05489   0.05573
   3    30     1          0.00000   0.00000   0.04784   0.00000   0.00000
   1    31     1          0.05890  -0.04358   0.00424   0.01129   0.01589
   2    31     1          0.34706  -0.00642  -0.03891   0.05705   0.05807
   3    31     1          0.00025  -0.00017  -0.02649   0.00017   0.00001
   1    32     1          0.05890  -0.04358  -0.00424   0.01129   0.01589
   2    32     1          0.34706  -0.00641   0.03891   0.05705   0.05807
   3    32     1         -0.00025   0.00017  -0.02649  -0.00017  -0.00001
   1    33     1         -0.00056   0.18570  -0.00262   0.00284  -0.00216
   2    33     1         -0.06360   0.00192   0.44694  -0.48944   0.40819
   3    33     1         -0.00027   0.11348   0.00076   0.00004   0.00009
   1    34     1         -0.00056   0.18570   0.00259  -0.00285  -0.00216
   2    34     1         -0.06365   0.00176  -0.44694   0.48944   0.40819
   3    34     1          0.00027  -0.11348   0.00078   0.00005  -0.00009
   1    35     1         -0.00056   0.18570  -0.00262  -0.00284  -0.00216
   2    35     1         -0.06360   0.00192   0.44688   0.48948   0.40820
   3    35     1         -0.00027   0.11348   0.00076  -0.00004   0.00009
   1    36     1         -0.00056   0.18570   0.00259   0.00285  -0.00216
   2    36     1         -0.06365   0.00176  -0.44689  -0.48948   0.40820
   3    36     1          0.00027  -0.11348   0.00078  -0.00005  -0.00009
                          16        17        18        19        20
                           A         A         A         A         A
       Frequencies ---   106.9371  122.0775  127.2582  157.4992  159.1923
    Reduced masses ---     5.4131    4.4770    4.7269   15.2073   16.3231
   Force constants ---     0.0365    0.0393    0.0451    0.2223    0.2437
    IR Intensities ---     0.0000    0.0000    0.0002    0.0000    0.0000
  Raman Activities ---     3.1803    0.0061    0.0000    4.4450    3.1727
    Depol. (Plane) ---     0.7500    0.4284    0.7425    0.7500    0.7500
    Depol. (Unpol) ---     0.8571    0.5998    0.8522    0.8571    0.8571
 Coord Atom Element:
   1     1     6          0.00000   0.06572   0.00000   0.00000   0.00000
   2     1     6          0.00000  -0.00145   0.00000   0.00000   0.00000
   3     1     6         -0.09068   0.00000   0.11298   0.00726  -0.17550
   1     2     6          0.00000  -0.15847   0.00000   0.00000   0.00000
   2     2     6          0.00000  -0.01024   0.00000   0.00000   0.00000
   3     2     6         -0.15961   0.00000   0.20205  -0.00526  -0.09769
   1     3     6          0.00000  -0.00142   0.00000   0.00000   0.00000
   2     3     6          0.00000  -0.06447   0.00000   0.00000   0.00000
   3     3     6         -0.00049   0.00000  -0.11805  -0.17514  -0.00688
   1     4     6          0.00000  -0.01006   0.00000   0.00000   0.00000
   2     4     6          0.00000   0.15240   0.00000   0.00000   0.00000
   3     4     6         -0.00074   0.00000  -0.21088  -0.10959   0.00751
   1     5     1          0.00000  -0.21361   0.00000   0.00000   0.00000
   2     5     1          0.00000  -0.18479   0.00000   0.00000   0.00000
   3     5     1         -0.16636   0.00000   0.20795   0.01599  -0.10248
   1     6     1          0.00891  -0.22507  -0.01545   0.00922  -0.01407
   2     6     1          0.04635   0.06975  -0.06403   0.01013  -0.04137
   3     6     1         -0.18461   0.00070   0.23828  -0.01324  -0.07237
   1     7     1         -0.00891  -0.22507   0.01545  -0.00922   0.01407
   2     7     1         -0.04635   0.06975   0.06403  -0.01012   0.04137
   3     7     1         -0.18461  -0.00070   0.23828  -0.01324  -0.07237
   1     8     1          0.00000  -0.17889   0.00000   0.00000   0.00000
   2     8     1          0.00000   0.20565   0.00000   0.00000   0.00000
   3     8     1          0.00047   0.00000  -0.21260  -0.11670  -0.01453
   1     9     1          0.00016   0.06730   0.06647  -0.03257  -0.01140
   2     9     1         -0.00037   0.21695  -0.01952   0.01313   0.00985
   3     9     1         -0.00098   0.00071  -0.25047  -0.08852   0.01636
   1    10     1         -0.00016   0.06730  -0.06647   0.03257   0.01140
   2    10     1          0.00037   0.21695   0.01952  -0.01313  -0.00985
   3    10     1         -0.00098  -0.00071  -0.25047  -0.08852   0.01636
   1    11     8          0.00147   0.13748  -0.00271   0.31092   0.00535
   2    11     8         -0.03132  -0.00013   0.03444   0.00027   0.09185
   3    11     8         -0.07530  -0.00026   0.09361   0.00897  -0.22889
   1    12     8         -0.00147   0.13748   0.00271  -0.31092  -0.00535
   2    12     8          0.03132  -0.00013  -0.03444  -0.00027  -0.09185
   3    12     8         -0.07530   0.00026   0.09361   0.00897  -0.22889
   1    13     8          0.00010  -0.00012  -0.03614   0.08428   0.00026
   2    13     8         -0.00593  -0.13437  -0.00289  -0.00505   0.31611
   3    13     8         -0.00050  -0.00026  -0.09822  -0.22347  -0.00902
   1    14     8          0.00010   0.00012   0.03614   0.08428   0.00026
   2    14     8         -0.00593   0.13437   0.00289  -0.00505   0.31611
   3    14     8          0.00050  -0.00026  -0.09822   0.22347   0.00902
   1    15     8         -0.00210   0.00000   0.00000  -0.06081  -0.00096
   2    15     8          0.32877   0.00000   0.00000  -0.00227  -0.09753
   3    15     8          0.00000   0.00003   0.00909   0.00000   0.00000
   1    16    45          0.00026   0.00000   0.00000   0.13882   0.00003
   2    16    45         -0.01071   0.00000   0.00000  -0.00006   0.14856
   3    16    45          0.00000  -0.00037   0.00172   0.00000   0.00000
   1    17    45         -0.00026   0.00000   0.00000  -0.13882  -0.00003
   2    17    45          0.01072   0.00000   0.00000   0.00006  -0.14856
   3    17    45          0.00000   0.00037   0.00172   0.00000   0.00000
   1    18     8          0.00147  -0.13748   0.00271   0.31092   0.00535
   2    18     8         -0.03132   0.00013  -0.03444   0.00027   0.09185
   3    18     8          0.07530  -0.00026   0.09361  -0.00897   0.22889
   1    19     8         -0.00010  -0.00012   0.03614  -0.08428  -0.00026
   2    19     8          0.00593  -0.13437   0.00289   0.00505  -0.31611
   3    19     8         -0.00050   0.00026  -0.09822  -0.22347  -0.00902
   1    20     6          0.00000   0.00142   0.00000   0.00000   0.00000
   2    20     6          0.00000   0.06447   0.00000   0.00000   0.00000
   3    20     6          0.00049   0.00000  -0.11805   0.17514   0.00688
   1    21     8         -0.00147  -0.13748  -0.00271  -0.31092  -0.00535
   2    21     8          0.03132   0.00013   0.03444  -0.00027  -0.09185
   3    21     8          0.07530   0.00026   0.09361  -0.00897   0.22889
   1    22     8         -0.00010   0.00012  -0.03614  -0.08428  -0.00026
   2    22     8          0.00593   0.13437  -0.00289   0.00505  -0.31611
   3    22     8          0.00050   0.00026  -0.09822   0.22347   0.00902
   1    23     8          0.00210   0.00000   0.00000   0.06081   0.00096
   2    23     8         -0.32878   0.00000   0.00000   0.00227   0.09753
   3    23     8          0.00000  -0.00003   0.00909   0.00000   0.00000
   1    24     6          0.00000  -0.06572   0.00000   0.00000   0.00000
   2    24     6          0.00000   0.00145   0.00000   0.00000   0.00000
   3    24     6          0.09068   0.00000   0.11298  -0.00726   0.17550
   1    25     6          0.00000   0.01006   0.00000   0.00000   0.00000
   2    25     6          0.00000  -0.15240   0.00000   0.00000   0.00000
   3    25     6          0.00074   0.00000  -0.21088   0.10959  -0.00751
   1    26     6          0.00000   0.15847   0.00000   0.00000   0.00000
   2    26     6          0.00000   0.01024   0.00000   0.00000   0.00000
   3    26     6          0.15961   0.00000   0.20205   0.00526   0.09769
   1    27     1          0.00000   0.21361   0.00000   0.00000   0.00000
   2    27     1          0.00000   0.18479   0.00000   0.00000   0.00000
   3    27     1          0.16636   0.00000   0.20795  -0.01599   0.10248
   1    28     1         -0.00891   0.22507  -0.01545  -0.00922   0.01407
   2    28     1         -0.04635  -0.06975  -0.06403  -0.01013   0.04137
   3    28     1          0.18461  -0.00070   0.23828   0.01324   0.07237
   1    29     1          0.00891   0.22507   0.01545   0.00922  -0.01407
   2    29     1          0.04635  -0.06975   0.06403   0.01012  -0.04137
   3    29     1          0.18461   0.00070   0.23828   0.01324   0.07237
   1    30     1          0.00000   0.17889   0.00000   0.00000   0.00000
   2    30     1          0.00000  -0.20565   0.00000   0.00000   0.00000
   3    30     1         -0.00047   0.00000  -0.21260   0.11670   0.01453
   1    31     1         -0.00016  -0.06730   0.06647   0.03257   0.01140
   2    31     1          0.00037  -0.21695  -0.01952  -0.01313  -0.00985
   3    31     1          0.00098  -0.00071  -0.25047   0.08852  -0.01636
   1    32     1          0.00016  -0.06730  -0.06647  -0.03257  -0.01140
   2    32     1         -0.00037  -0.21695   0.01952   0.01313   0.00985
   3    32     1          0.00098   0.00071  -0.25047   0.08852  -0.01636
   1    33     1          0.00232   0.00010   0.00109   0.15753  -0.00057
   2    33     1         -0.34958  -0.01938   0.00710  -0.00032   0.20032
   3    33     1          0.00015  -0.00006   0.01086   0.14875  -0.00139
   1    34     1          0.00232  -0.00010  -0.00109   0.15753  -0.00057
   2    34     1         -0.34958   0.01938  -0.00710  -0.00032   0.20032
   3    34     1         -0.00015  -0.00006   0.01086  -0.14875   0.00139
   1    35     1         -0.00232  -0.00010   0.00109  -0.15753   0.00057
   2    35     1          0.34957   0.01938   0.00710   0.00032  -0.20032
   3    35     1         -0.00015   0.00006   0.01086  -0.14875   0.00139
   1    36     1         -0.00232   0.00010  -0.00109  -0.15753   0.00057
   2    36     1          0.34957  -0.01938  -0.00710   0.00032  -0.20032
   3    36     1          0.00015   0.00006   0.01086   0.14875  -0.00139
                          21        22        23        24        25
                           A         A         A         A         A
       Frequencies ---   166.8946  202.2580  211.8569  231.5664  233.1866
    Reduced masses ---     4.5077   12.0023    6.2953    5.1052    5.2497
   Force constants ---     0.0740    0.2893    0.1665    0.1613    0.1682
    IR Intensities ---     3.7715    0.0000    0.0000    0.0000    0.0000
  Raman Activities ---     0.0000    0.0000    0.3315    0.0008    0.0081
    Depol. (Plane) ---     0.2373    0.7366    0.7500    0.7500    0.7500
    Depol. (Unpol) ---     0.3836    0.8483    0.8571    0.8571    0.8571
 Coord Atom Element:
   1     1     6          0.00000   0.00000   0.14140   0.00000   0.00000
   2     1     6          0.00000   0.00000  -0.00383   0.00000   0.00000
   3     1     6          0.05948   0.00832   0.00000   0.00152  -0.11095
   1     2     6          0.00000   0.00000  -0.08758   0.00000   0.00000
   2     2     6          0.00000   0.00000  -0.01387   0.00000   0.00000
   3     2     6          0.19332  -0.00306   0.00000   0.00225   0.18931
   1     3     6          0.00000   0.00000   0.00399   0.00000   0.00000
   2     3     6          0.00000   0.00000   0.14463   0.00000   0.00000
   3     3     6          0.05409  -0.00873   0.00000  -0.10542  -0.00151
   1     4     6          0.00000   0.00000   0.01442   0.00000   0.00000
   2     4     6          0.00000   0.00000  -0.08932   0.00000   0.00000
   3     4     6          0.17773   0.00450   0.00000   0.19281  -0.00445
   1     5     1          0.00000   0.00000  -0.15019   0.00000   0.00000
   2     5     1          0.00000   0.00000  -0.21021   0.00000   0.00000
   3     5     1          0.20965   0.01114   0.00000  -0.00292   0.24186
   1     6     1         -0.01858   0.00387  -0.16332  -0.00138  -0.03061
   2     6     1         -0.09902   0.01115   0.07581  -0.00306  -0.22472
   3     6     1          0.24658  -0.00876   0.00109   0.00381   0.30350
   1     7     1          0.01858  -0.00387  -0.16332   0.00138   0.03061
   2     7     1          0.09902  -0.01115   0.07581   0.00306   0.22472
   3     7     1          0.24658  -0.00876  -0.00109   0.00381   0.30350
   1     8     1          0.00000   0.00000   0.21495   0.00000   0.00000
   2     8     1          0.00000   0.00000  -0.15317   0.00000   0.00000
   3     8     1          0.18994  -0.01086   0.00000   0.24126   0.00057
   1     9     1         -0.09096  -0.01260  -0.07718  -0.22287   0.00492
   2     9     1          0.01918   0.00464  -0.16683   0.03305  -0.00170
   3     9     1          0.22794   0.01119  -0.00114   0.30782  -0.00697
   1    10     1          0.09096   0.01260  -0.07718   0.22287  -0.00492
   2    10     1         -0.01918  -0.00464  -0.16683  -0.03306   0.00171
   3    10     1          0.22794   0.01119   0.00114   0.30782  -0.00697
   1    11     8          0.00476   0.29502   0.18136  -0.13654  -0.01068
   2    11     8          0.04552   0.00177  -0.00201  -0.00522   0.08916
   3    11     8          0.03442   0.00902  -0.00058   0.00391  -0.15610
   1    12     8         -0.00476  -0.29502   0.18136   0.13654   0.01068
   2    12     8         -0.04552  -0.00177  -0.00201   0.00522  -0.08916
   3    12     8          0.03442   0.00902   0.00058   0.00391  -0.15610
   1    13     8          0.04259  -0.00147   0.00210   0.09030   0.00522
   2    13     8         -0.00475   0.31003   0.18547   0.00878  -0.14175
   3    13     8          0.03132  -0.00982   0.00062  -0.15259  -0.00382
   1    14     8         -0.04259   0.00147  -0.00210   0.09030   0.00522
   2    14     8          0.00476  -0.31003  -0.18547   0.00878  -0.14175
   3    14     8          0.03132  -0.00982   0.00061   0.15259   0.00382
   1    15     8          0.00000   0.00000   0.00000  -0.00309   0.00068
   2    15     8          0.00000   0.00000   0.00000   0.00181   0.01982
   3    15     8         -0.14344   0.00122   0.00017   0.00000   0.00000
   1    16    45          0.00000   0.00000   0.00000   0.00937   0.00724
   2    16    45          0.00000   0.00000   0.00000  -0.00623   0.00670
   3    16    45         -0.06494  -0.00014   0.00005   0.00000   0.00000
   1    17    45          0.00000   0.00000   0.00000  -0.00937  -0.00724
   2    17    45          0.00000   0.00000   0.00000   0.00623  -0.00670
   3    17    45         -0.06494  -0.00014  -0.00005   0.00000   0.00000
   1    18     8         -0.00476  -0.29502  -0.18136  -0.13654  -0.01068
   2    18     8         -0.04552  -0.00177   0.00201  -0.00522   0.08916
   3    18     8          0.03442   0.00902  -0.00058  -0.00391   0.15610
   1    19     8         -0.04259   0.00147   0.00210  -0.09030  -0.00522
   2    19     8          0.00475  -0.31002   0.18547  -0.00878   0.14175
   3    19     8          0.03132  -0.00982  -0.00061  -0.15259  -0.00382
   1    20     6          0.00000   0.00000  -0.00399   0.00000   0.00000
   2    20     6          0.00000   0.00000  -0.14463   0.00000   0.00000
   3    20     6          0.05409  -0.00873   0.00000   0.10542   0.00151
   1    21     8          0.00476   0.29502  -0.18136   0.13654   0.01068
   2    21     8          0.04552   0.00177   0.00201   0.00522  -0.08916
   3    21     8          0.03442   0.00902   0.00058  -0.00391   0.15610
   1    22     8          0.04259  -0.00147  -0.00210  -0.09030  -0.00522
   2    22     8         -0.00476   0.31002  -0.18547  -0.00878   0.14175
   3    22     8          0.03132  -0.00982  -0.00062   0.15259   0.00382
   1    23     8          0.00000   0.00000   0.00000   0.00309  -0.00068
   2    23     8          0.00000   0.00000   0.00000  -0.00181  -0.01982
   3    23     8         -0.14344   0.00122  -0.00017   0.00000   0.00000
   1    24     6          0.00000   0.00000  -0.14140   0.00000   0.00000
   2    24     6          0.00000   0.00000   0.00383   0.00000   0.00000
   3    24     6          0.05948   0.00832   0.00000  -0.00152   0.11095
   1    25     6          0.00000   0.00000  -0.01442   0.00000   0.00000
   2    25     6          0.00000   0.00000   0.08932   0.00000   0.00000
   3    25     6          0.17773   0.00450   0.00000  -0.19281   0.00445
   1    26     6          0.00000   0.00000   0.08758   0.00000   0.00000
   2    26     6          0.00000   0.00000   0.01387   0.00000   0.00000
   3    26     6          0.19332  -0.00306   0.00000  -0.00225  -0.18931
   1    27     1          0.00000   0.00000   0.15019   0.00000   0.00000
   2    27     1          0.00000   0.00000   0.21021   0.00000   0.00000
   3    27     1          0.20965   0.01114   0.00000   0.00292  -0.24186
   1    28     1         -0.01858   0.00387   0.16332   0.00138   0.03061
   2    28     1         -0.09902   0.01115  -0.07581   0.00306   0.22472
   3    28     1          0.24658  -0.00876  -0.00109  -0.00381  -0.30350
   1    29     1          0.01858  -0.00387   0.16332  -0.00138  -0.03061
   2    29     1          0.09902  -0.01115  -0.07581  -0.00306  -0.22472
   3    29     1          0.24658  -0.00876   0.00109  -0.00381  -0.30350
   1    30     1          0.00000   0.00000  -0.21495   0.00000   0.00000
   2    30     1          0.00000   0.00000   0.15317   0.00000   0.00000
   3    30     1          0.18994  -0.01086   0.00000  -0.24126  -0.00057
   1    31     1         -0.09096  -0.01260   0.07718   0.22287  -0.00492
   2    31     1          0.01918   0.00464   0.16683  -0.03306   0.00171
   3    31     1          0.22794   0.01119   0.00114  -0.30782   0.00697
   1    32     1          0.09096   0.01260   0.07718  -0.22287   0.00492
   2    32     1         -0.01918  -0.00464   0.16683   0.03306  -0.00170
   3    32     1          0.22794   0.01119  -0.00114  -0.30782   0.00697
   1    33     1         -0.00292   0.00163  -0.00081  -0.01465   0.00604
   2    33     1          0.00018  -0.25677   0.14066  -0.00252  -0.00947
   3    33     1         -0.14908   0.00145  -0.00018  -0.02669   0.01036
   1    34     1          0.00292  -0.00163   0.00081  -0.01465   0.00604
   2    34     1         -0.00018   0.25677  -0.14066  -0.00252  -0.00947
   3    34     1         -0.14908   0.00145  -0.00018   0.02669  -0.01036
   1    35     1         -0.00292   0.00163   0.00081   0.01465  -0.00604
   2    35     1          0.00018  -0.25677  -0.14066   0.00252   0.00947
   3    35     1         -0.14908   0.00145   0.00018   0.02669  -0.01036
   1    36     1          0.00292  -0.00163  -0.00081   0.01465  -0.00604
   2    36     1         -0.00018   0.25677   0.14066   0.00252   0.00947
   3    36     1         -0.14908   0.00145   0.00018  -0.02669   0.01036
                          26        27        28        29        30
                           A         A         A         A         A
       Frequencies ---   238.4493  239.7840  243.0872  251.2174  273.9561
    Reduced masses ---     6.8690    6.9112    7.3703    4.9735    6.5171
   Force constants ---     0.2301    0.2341    0.2566    0.1849    0.2882
    IR Intensities ---     0.0684    0.6039    0.0000    0.5265    0.0000
  Raman Activities ---     0.0000    0.0000    0.4054    0.0000    0.5046
    Depol. (Plane) ---     0.6263    0.6938    0.2717    0.1512    0.7500
    Depol. (Unpol) ---     0.7702    0.8193    0.4273    0.2627    0.8571
 Coord Atom Element:
   1     1     6          0.20288   0.00322  -0.00018   0.00000   0.00000
   2     1     6         -0.00041  -0.10384   0.03629   0.00000   0.00000
   3     1     6          0.00000   0.00000   0.00000  -0.04299   0.00521
   1     2     6         -0.10696   0.00216  -0.00177   0.00000   0.00000
   2     2     6         -0.01446  -0.11729   0.03895   0.00000   0.00000
   3     2     6          0.00000   0.00000   0.00000   0.08979  -0.01241
   1     3     6         -0.10017   0.00071   0.03516   0.00000   0.00000
   2     3     6         -0.00317   0.20342   0.00003   0.00000   0.00000
   3     3     6          0.00000   0.00000   0.00000  -0.04311   0.04221
   1     4     6         -0.11293   0.01500   0.03727   0.00000   0.00000
   2     4     6         -0.00207  -0.10561   0.00175   0.00000   0.00000
   3     4     6          0.00000   0.00000   0.00000   0.10296  -0.16908
   1     5     1         -0.19660   0.00120  -0.00164   0.00000   0.00000
   2     5     1         -0.29535  -0.12083   0.03936   0.00000   0.00000
   3     5     1          0.00000   0.00000   0.00000   0.12019  -0.02074
   1     6     1         -0.21669   0.00075  -0.00125  -0.01104   0.00001
   2     6     1          0.11378  -0.11685   0.03964  -0.10737   0.00887
   3     6     1          0.00237   0.00011  -0.00038   0.14251  -0.01681
   1     7     1         -0.21669   0.00075  -0.00125   0.01104  -0.00001
   2     7     1          0.11378  -0.11685   0.03964   0.10737  -0.00887
   3     7     1         -0.00237  -0.00011   0.00038   0.14251  -0.01681
   1     8     1         -0.11635   0.29541   0.03752   0.00000   0.00000
   2     8     1         -0.00114  -0.19500   0.00167   0.00000   0.00000
   3     8     1          0.00000   0.00000   0.00000   0.13494  -0.22351
   1     9     1         -0.11231  -0.11299   0.03814  -0.11857   0.17922
   2     9     1         -0.00080  -0.21537   0.00129   0.01349  -0.01745
   3     9     1         -0.00001  -0.00240  -0.00046   0.16203  -0.25701
   1    10     1         -0.11231  -0.11299   0.03814   0.11857  -0.17922
   2    10     1         -0.00080  -0.21537   0.00129  -0.01349   0.01745
   3    10     1          0.00002   0.00240   0.00046   0.16203  -0.25701
   1    11     8          0.24540   0.00157   0.00096   0.00154  -0.17712
   2    11     8          0.00203  -0.08946   0.01673   0.03549  -0.00768
   3    11     8         -0.00103  -0.00476   0.01249  -0.06789   0.00831
   1    12     8          0.24540   0.00157   0.00096  -0.00154   0.17712
   2    12     8          0.00203  -0.08946   0.01673  -0.03549   0.00768
   3    12     8          0.00103   0.00476  -0.01249  -0.06789   0.00831
   1    13     8         -0.08657  -0.00178   0.01480   0.03804   0.00665
   2    13     8         -0.00154   0.24491  -0.00113  -0.00284   0.01090
   3    13     8         -0.00452   0.00104   0.01273  -0.07107   0.03131
   1    14     8         -0.08657  -0.00178  -0.01480  -0.03804   0.00665
   2    14     8         -0.00154   0.24491   0.00113   0.00284   0.01090
   3    14     8          0.00452  -0.00104   0.01273  -0.07107  -0.03131
   1    15     8         -0.00542  -0.00072   0.00000   0.00000   0.02935
   2    15     8         -0.00041   0.00403   0.00000   0.00000  -0.00118
   3    15     8          0.00000   0.00000   0.39225   0.29218   0.00000
   1    16    45         -0.02575  -0.00302   0.00000   0.00000   0.11834
   2    16    45          0.00295  -0.02467   0.00000   0.00000   0.00206
   3    16    45          0.00000   0.00000   0.08809  -0.02914   0.00000
   1    17    45         -0.02575  -0.00302   0.00000   0.00000  -0.11834
   2    17    45          0.00295  -0.02467   0.00000   0.00000  -0.00206
   3    17    45          0.00000   0.00000  -0.08809  -0.02914   0.00000
   1    18     8          0.24540   0.00157  -0.00096  -0.00154  -0.17712
   2    18     8          0.00203  -0.08946  -0.01673  -0.03549  -0.00768
   3    18     8          0.00103   0.00476   0.01249  -0.06789  -0.00831
   1    19     8         -0.08657  -0.00178   0.01480  -0.03804  -0.00665
   2    19     8         -0.00154   0.24491  -0.00113   0.00284  -0.01090
   3    19     8          0.00452  -0.00104  -0.01274  -0.07107   0.03131
   1    20     6         -0.10017   0.00071  -0.03516   0.00000   0.00000
   2    20     6         -0.00317   0.20342  -0.00003   0.00000   0.00000
   3    20     6          0.00000   0.00000   0.00000  -0.04311  -0.04221
   1    21     8          0.24540   0.00157  -0.00096   0.00154   0.17712
   2    21     8          0.00203  -0.08946  -0.01673   0.03549   0.00768
   3    21     8         -0.00103  -0.00476  -0.01249  -0.06789  -0.00831
   1    22     8         -0.08657  -0.00178  -0.01480   0.03804  -0.00665
   2    22     8         -0.00154   0.24491   0.00113  -0.00284  -0.01090
   3    22     8         -0.00452   0.00104  -0.01274  -0.07107  -0.03131
   1    23     8         -0.00542  -0.00072   0.00000   0.00000  -0.02935
   2    23     8         -0.00041   0.00403   0.00000   0.00000   0.00118
   3    23     8          0.00000   0.00000  -0.39225   0.29218   0.00000
   1    24     6          0.20288   0.00322   0.00018   0.00000   0.00000
   2    24     6         -0.00041  -0.10384  -0.03629   0.00000   0.00000
   3    24     6          0.00000   0.00000   0.00000  -0.04299  -0.00521
   1    25     6         -0.11293   0.01500  -0.03727   0.00000   0.00000
   2    25     6         -0.00207  -0.10561  -0.00175   0.00000   0.00000
   3    25     6          0.00000   0.00000   0.00000   0.10296   0.16908
   1    26     6         -0.10696   0.00216   0.00177   0.00000   0.00000
   2    26     6         -0.01446  -0.11729  -0.03895   0.00000   0.00000
   3    26     6          0.00000   0.00000   0.00000   0.08979   0.01241
   1    27     1         -0.19660   0.00120   0.00164   0.00000   0.00000
   2    27     1         -0.29535  -0.12083  -0.03936   0.00000   0.00000
   3    27     1          0.00000   0.00000   0.00000   0.12019   0.02074
   1    28     1         -0.21669   0.00075   0.00125  -0.01104  -0.00001
   2    28     1          0.11378  -0.11685  -0.03964  -0.10737  -0.00887
   3    28     1          0.00237   0.00011   0.00038   0.14251   0.01681
   1    29     1         -0.21669   0.00075   0.00125   0.01104   0.00001
   2    29     1          0.11378  -0.11685  -0.03964   0.10737   0.00887
   3    29     1         -0.00237  -0.00011  -0.00038   0.14251   0.01681
   1    30     1         -0.11635   0.29541  -0.03752   0.00000   0.00000
   2    30     1         -0.00114  -0.19500  -0.00167   0.00000   0.00000
   3    30     1          0.00000   0.00000   0.00000   0.13494   0.22351
   1    31     1         -0.11231  -0.11299  -0.03814  -0.11857  -0.17922
   2    31     1         -0.00080  -0.21537  -0.00129   0.01349   0.01745
   3    31     1         -0.00002  -0.00240   0.00046   0.16203   0.25701
   1    32     1         -0.11231  -0.11299  -0.03814   0.11857   0.17922
   2    32     1         -0.00080  -0.21537  -0.00129  -0.01349  -0.01745
   3    32     1          0.00001   0.00240  -0.00046   0.16203   0.25701
   1    33     1          0.01993   0.00144  -0.00434   0.00728   0.12466
   2    33     1         -0.00024  -0.01556  -0.00038   0.00094   0.00218
   3    33     1          0.03834   0.00312  -0.40138   0.30741   0.23468
   1    34     1          0.01993   0.00144   0.00434  -0.00728   0.12466
   2    34     1         -0.00024  -0.01556   0.00038  -0.00094   0.00218
   3    34     1         -0.03834  -0.00312  -0.40138   0.30741  -0.23468
   1    35     1          0.01993   0.00144   0.00434   0.00728  -0.12466
   2    35     1         -0.00024  -0.01556   0.00038   0.00094  -0.00218
   3    35     1          0.03835   0.00312   0.40139   0.30740  -0.23468
   1    36     1          0.01993   0.00144  -0.00434  -0.00728  -0.12466
   2    36     1         -0.00024  -0.01556  -0.00038  -0.00094  -0.00218
   3    36     1         -0.03835  -0.00312   0.40138   0.30740   0.23468
                          31        32        33        34        35
                           A         A         A         A         A
       Frequencies ---   280.2116  282.9218  306.4791  312.3864  331.6645
    Reduced masses ---     4.2849    9.2906    6.7612    6.7444    7.2639
   Force constants ---     0.1982    0.4382    0.3742    0.3878    0.4708
    IR Intensities ---     0.0437    0.0000    0.0000    0.0000   33.5240
  Raman Activities ---     0.0000    0.1656   12.1805   32.7460    0.0000
    Depol. (Plane) ---     0.4681    0.7500    0.7436    0.1688    0.0202
    Depol. (Unpol) ---     0.6377    0.8571    0.8530    0.2888    0.0397
 Coord Atom Element:
   1     1     6          0.00000   0.00000  -0.00196  -0.00139   0.00000
   2     1     6          0.00000   0.00000  -0.17827   0.16802   0.00000
   3     1     6         -0.09865  -0.06591   0.00000   0.00000  -0.12204
   1     2     6          0.00000   0.00000   0.00924  -0.00765   0.00000
   2     2     6          0.00000   0.00000  -0.21426   0.20182   0.00000
   3     2     6          0.12287   0.19055   0.00000   0.00000   0.08944
   1     3     6          0.00000   0.00000   0.17301   0.17230   0.00000
   2     3     6          0.00000   0.00000  -0.00202   0.00124   0.00000
   3     3     6          0.09782   0.00446   0.00000   0.00000  -0.11776
   1     4     6          0.00000   0.00000   0.20775   0.20716   0.00000
   2     4     6          0.00000   0.00000   0.00910   0.00799   0.00000
   3     4     6         -0.12441  -0.01225   0.00000   0.00000   0.08495
   1     5     1          0.00000   0.00000   0.01122  -0.00817   0.00000
   2     5     1          0.00000   0.00000  -0.20778   0.19961   0.00000
   3     5     1          0.17180   0.25898   0.00000   0.00000   0.14374
   1     6     1         -0.02130  -0.01926   0.00927  -0.00535  -0.01827
   2     6     1         -0.18156  -0.21785  -0.21749   0.20213  -0.18295
   3     6     1          0.21340   0.29619   0.00048  -0.00054   0.17894
   1     7     1          0.02130   0.01926   0.00927  -0.00535   0.01827
   2     7     1          0.18156   0.21785  -0.21749   0.20213   0.18295
   3     7     1          0.21340   0.29619  -0.00048   0.00054   0.17894
   1     8     1          0.00000   0.00000   0.20111   0.20441   0.00000
   2     8     1          0.00000   0.00000   0.01113   0.00868   0.00000
   3     8     1         -0.17139  -0.02142   0.00000   0.00000   0.13518
   1     9     1          0.18172   0.00696   0.21097   0.20759  -0.17440
   2     9     1         -0.02266   0.00001   0.00943   0.00599   0.01824
   3     9     1         -0.21600  -0.01594  -0.00036  -0.00042   0.17096
   1    10     1         -0.18172  -0.00696   0.21096   0.20759   0.17440
   2    10     1          0.02266  -0.00001   0.00943   0.00599  -0.01824
   3    10     1         -0.21600  -0.01594   0.00036   0.00042   0.17096
   1    11     8          0.00577   0.01069  -0.00784   0.00441   0.00163
   2    11     8          0.04556  -0.01195  -0.14424   0.12938   0.02088
   3    11     8         -0.12698  -0.04602  -0.01029   0.01365  -0.13373
   1    12     8         -0.00577  -0.01069  -0.00784   0.00441  -0.00163
   2    12     8         -0.04556   0.01195  -0.14424   0.12938  -0.02088
   3    12     8         -0.12698  -0.04602   0.01029  -0.01365  -0.13373
   1    13     8         -0.04570  -0.00823   0.13948   0.13351   0.02089
   2    13     8          0.00597   0.21364  -0.00782  -0.00476  -0.00151
   3    13     8          0.12637   0.00780   0.01036   0.01351  -0.12908
   1    14     8          0.04570  -0.00823  -0.13948  -0.13351  -0.02089
   2    14     8         -0.00597   0.21364   0.00782   0.00476   0.00151
   3    14     8          0.12637  -0.00780   0.01036   0.01351  -0.12908
   1    15     8          0.00000   0.00004   0.00000   0.00000   0.00000
   2    15     8          0.00000   0.04193   0.00000   0.00000   0.00000
   3    15     8          0.00949   0.00000   0.00045  -0.10987  -0.16153
   1    16    45          0.00000   0.00227   0.00000   0.00000   0.00000
   2    16    45          0.00000  -0.14769   0.00000   0.00000   0.00000
   3    16    45         -0.00112   0.00000   0.00238   0.02827   0.10815
   1    17    45          0.00000  -0.00227   0.00000   0.00000   0.00000
   2    17    45          0.00000   0.14769   0.00000   0.00000   0.00000
   3    17    45         -0.00112   0.00000  -0.00238  -0.02827   0.10815
   1    18     8         -0.00577   0.01069   0.00784  -0.00441  -0.00163
   2    18     8         -0.04556  -0.01195   0.14424  -0.12938  -0.02088
   3    18     8         -0.12698   0.04602  -0.01029   0.01365  -0.13373
   1    19     8          0.04570   0.00823   0.13948   0.13351  -0.02089
   2    19     8         -0.00597  -0.21364  -0.00782  -0.00476   0.00151
   3    19     8          0.12637   0.00780  -0.01036  -0.01351  -0.12908
   1    20     6          0.00000   0.00000  -0.17301  -0.17230   0.00000
   2    20     6          0.00000   0.00000   0.00202  -0.00124   0.00000
   3    20     6          0.09782  -0.00446   0.00000   0.00000  -0.11776
   1    21     8          0.00577  -0.01069   0.00784  -0.00441   0.00163
   2    21     8          0.04556   0.01195   0.14424  -0.12938   0.02088
   3    21     8         -0.12698   0.04602   0.01029  -0.01365  -0.13373
   1    22     8         -0.04570   0.00823  -0.13948  -0.13351   0.02089
   2    22     8          0.00597  -0.21364   0.00782   0.00476  -0.00151
   3    22     8          0.12637  -0.00780  -0.01036  -0.01351  -0.12908
   1    23     8          0.00000  -0.00004   0.00000   0.00000   0.00000
   2    23     8          0.00000  -0.04193   0.00000   0.00000   0.00000
   3    23     8          0.00949   0.00000  -0.00045   0.10987  -0.16152
   1    24     6          0.00000   0.00000   0.00196   0.00139   0.00000
   2    24     6          0.00000   0.00000   0.17827  -0.16802   0.00000
   3    24     6         -0.09865   0.06591   0.00000   0.00000  -0.12204
   1    25     6          0.00000   0.00000  -0.20775  -0.20716   0.00000
   2    25     6          0.00000   0.00000  -0.00910  -0.00799   0.00000
   3    25     6         -0.12441   0.01225   0.00000   0.00000   0.08495
   1    26     6          0.00000   0.00000  -0.00924   0.00765   0.00000
   2    26     6          0.00000   0.00000   0.21426  -0.20182   0.00000
   3    26     6          0.12287  -0.19055   0.00000   0.00000   0.08944
   1    27     1          0.00000   0.00000  -0.01122   0.00817   0.00000
   2    27     1          0.00000   0.00000   0.20778  -0.19961   0.00000
   3    27     1          0.17180  -0.25898   0.00000   0.00000   0.14374
   1    28     1         -0.02130   0.01926  -0.00927   0.00535  -0.01827
   2    28     1         -0.18156   0.21785   0.21749  -0.20213  -0.18295
   3    28     1          0.21340  -0.29619  -0.00048   0.00054   0.17894
   1    29     1          0.02130  -0.01926  -0.00927   0.00535   0.01827
   2    29     1          0.18156  -0.21785   0.21749  -0.20213   0.18295
   3    29     1          0.21340  -0.29619   0.00048  -0.00054   0.17894
   1    30     1          0.00000   0.00000  -0.20111  -0.20441   0.00000
   2    30     1          0.00000   0.00000  -0.01113  -0.00868   0.00000
   3    30     1         -0.17139   0.02142   0.00000   0.00000   0.13518
   1    31     1          0.18172  -0.00696  -0.21096  -0.20759  -0.17440
   2    31     1         -0.02266  -0.00001  -0.00943  -0.00599   0.01824
   3    31     1         -0.21600   0.01594   0.00036   0.00042   0.17096
   1    32     1         -0.18172   0.00696  -0.21097  -0.20759   0.17440
   2    32     1          0.02266   0.00001  -0.00943  -0.00599  -0.01824
   3    32     1         -0.21600   0.01594  -0.00036  -0.00042   0.17096
   1    33     1         -0.00086   0.00283   0.00022   0.00191  -0.00320
   2    33     1         -0.00568  -0.00195  -0.00311  -0.00006  -0.00001
   3    33     1          0.00817   0.00473  -0.00033   0.11330  -0.16857
   1    34     1          0.00086   0.00283  -0.00022  -0.00191   0.00320
   2    34     1          0.00568  -0.00195   0.00311   0.00006   0.00001
   3    34     1          0.00817  -0.00473  -0.00033   0.11330  -0.16857
   1    35     1         -0.00086  -0.00283  -0.00022  -0.00191  -0.00320
   2    35     1         -0.00568   0.00195   0.00311   0.00006  -0.00001
   3    35     1          0.00817  -0.00473   0.00033  -0.11330  -0.16857
   1    36     1          0.00086  -0.00283   0.00022   0.00191   0.00320
   2    36     1          0.00568   0.00195  -0.00311  -0.00006   0.00001
   3    36     1          0.00817   0.00473   0.00033  -0.11330  -0.16857
                          36        37        38        39        40
                           A         A         A         A         A
       Frequencies ---   354.0338  362.0258  370.1971  456.5081  460.9985
    Reduced masses ---    20.8221    5.8798    9.3356    1.3138    1.3003
   Force constants ---     1.5377    0.4540    0.7538    0.1613    0.1628
    IR Intensities ---     0.0000    9.0233   52.4039   95.7159    0.0000
  Raman Activities ---    18.1896    0.0000    0.0000    0.0000    1.8045
    Depol. (Plane) ---     0.0928    0.0000    0.1042    0.7496    0.7500
    Depol. (Unpol) ---     0.1698    0.0000    0.1888    0.8569    0.8571
 Coord Atom Element:
   1     1     6          0.00040  -0.06379   0.00015   0.01569   0.00000
   2     1     6         -0.04544  -0.00434  -0.20931   0.00043   0.00000
   3     1     6          0.00000   0.00000   0.00000   0.00000  -0.00011
   1     2     6          0.00177   0.02203   0.01109  -0.00284   0.00000
   2     2     6         -0.07238  -0.00100  -0.28393  -0.00048   0.00000
   3     2     6          0.00000   0.00000   0.00000   0.00000  -0.00001
   1     3     6         -0.05555  -0.16450   0.00547   0.01872   0.00000
   2     3     6         -0.00035   0.00036  -0.09105   0.00106   0.00000
   3     3     6          0.00000   0.00000   0.00000   0.00000   0.02132
   1     4     6         -0.08467  -0.21997   0.00053   0.02993   0.00000
   2     4     6         -0.00232  -0.00862   0.03005   0.00133   0.00000
   3     4     6          0.00000   0.00000   0.00000   0.00000  -0.01234
   1     5     1          0.00256   0.05358   0.01295  -0.01067   0.00000
   2     5     1         -0.07038   0.09634  -0.27840  -0.02422   0.00000
   3     5     1          0.00000   0.00000   0.00000   0.00000  -0.00020
   1     6     1          0.00094   0.06090   0.00889  -0.01222   0.00021
   2     6     1         -0.07245  -0.04540  -0.28681   0.01026  -0.00093
   3     6     1         -0.00006  -0.00109   0.00041   0.00017   0.00026
   1     7     1          0.00094   0.06090   0.00889  -0.01222  -0.00021
   2     7     1         -0.07245  -0.04540  -0.28681   0.01026   0.00093
   3     7     1          0.00006   0.00109  -0.00041  -0.00017   0.00026
   1     8     1         -0.08246  -0.21488  -0.13698   0.03084   0.00000
   2     8     1         -0.00316  -0.01034   0.07466   0.00097   0.00000
   3     8     1          0.00000   0.00000   0.00000   0.00000  -0.02630
   1     9     1         -0.08496  -0.22336   0.06316   0.02838   0.03861
   2     9     1         -0.00146  -0.00763   0.08482   0.00006  -0.00255
   3     9     1          0.00003   0.00054   0.00142   0.00034  -0.03084
   1    10     1         -0.08496  -0.22336   0.06316   0.02838  -0.03861
   2    10     1         -0.00146  -0.00763   0.08482   0.00006   0.00255
   3    10     1         -0.00003  -0.00054  -0.00142  -0.00034  -0.03084
   1    11     8         -0.00059  -0.04460  -0.00866   0.00427  -0.00715
   2    11     8         -0.08882  -0.00421  -0.14833   0.00057  -0.00051
   3    11     8          0.03388   0.00025  -0.02238  -0.00015   0.00014
   1    12     8         -0.00059  -0.04460  -0.00866   0.00427   0.00715
   2    12     8         -0.08882  -0.00421  -0.14833   0.00057   0.00051
   3    12     8         -0.03388  -0.00025   0.02238   0.00015   0.00014
   1    13     8         -0.09507  -0.11999   0.00545   0.00718   0.01721
   2    13     8          0.00111   0.00676  -0.06042  -0.00134   0.00051
   3    13     8          0.03239  -0.01501  -0.00044   0.00687   0.00639
   1    14     8          0.09507  -0.11999   0.00545   0.00718   0.01721
   2    14     8         -0.00111   0.00676  -0.06042  -0.00134   0.00051
   3    14     8          0.03239   0.01501   0.00044  -0.00687  -0.00639
   1    15     8          0.00000   0.05671  -0.00022   0.07941  -0.08393
   2    15     8          0.00000   0.00018  -0.01437   0.00047  -0.00049
   3    15     8         -0.31936   0.00000   0.00000   0.00000   0.00000
   1    16    45          0.00000   0.09943  -0.00118  -0.01941   0.01481
   2    16    45          0.00000   0.00097   0.13666  -0.00006   0.00009
   3    16    45          0.27332   0.00000   0.00000   0.00000   0.00000
   1    17    45          0.00000   0.09943  -0.00118  -0.01941  -0.01481
   2    17    45          0.00000   0.00097   0.13666  -0.00006  -0.00009
   3    17    45         -0.27332   0.00000   0.00000   0.00000   0.00000
   1    18     8          0.00059  -0.04460  -0.00866   0.00427  -0.00715
   2    18     8          0.08882  -0.00421  -0.14833   0.00057  -0.00051
   3    18     8          0.03388  -0.00025   0.02238   0.00015  -0.00014
   1    19     8         -0.09507  -0.11999   0.00545   0.00718  -0.01721
   2    19     8          0.00111   0.00676  -0.06042  -0.00134  -0.00051
   3    19     8         -0.03239   0.01501   0.00044  -0.00687   0.00639
   1    20     6          0.05555  -0.16450   0.00547   0.01872   0.00000
   2    20     6          0.00035   0.00036  -0.09105   0.00106   0.00000
   3    20     6          0.00000   0.00000   0.00000   0.00000  -0.02132
   1    21     8          0.00059  -0.04460  -0.00866   0.00427   0.00715
   2    21     8          0.08882  -0.00421  -0.14833   0.00057   0.00051
   3    21     8         -0.03388   0.00025  -0.02238  -0.00015  -0.00014
   1    22     8          0.09507  -0.11999   0.00545   0.00718  -0.01721
   2    22     8         -0.00111   0.00676  -0.06042  -0.00134  -0.00051
   3    22     8         -0.03239  -0.01501  -0.00044   0.00687  -0.00639
   1    23     8          0.00000   0.05671  -0.00022   0.07940   0.08393
   2    23     8          0.00000   0.00018  -0.01437   0.00047   0.00049
   3    23     8          0.31936   0.00000   0.00000   0.00000   0.00000
   1    24     6         -0.00040  -0.06379   0.00015   0.01569   0.00000
   2    24     6          0.04544  -0.00434  -0.20931   0.00043   0.00000
   3    24     6          0.00000   0.00000   0.00000   0.00000   0.00011
   1    25     6          0.08467  -0.21997   0.00053   0.02993   0.00000
   2    25     6          0.00232  -0.00862   0.03005   0.00133   0.00000
   3    25     6          0.00000   0.00000   0.00000   0.00000   0.01234
   1    26     6         -0.00177   0.02203   0.01109  -0.00284   0.00000
   2    26     6          0.07238  -0.00100  -0.28393  -0.00048   0.00000
   3    26     6          0.00000   0.00000   0.00000   0.00000   0.00001
   1    27     1         -0.00256   0.05358   0.01295  -0.01067   0.00000
   2    27     1          0.07038   0.09634  -0.27840  -0.02422   0.00000
   3    27     1          0.00000   0.00000   0.00000   0.00000   0.00020
   1    28     1         -0.00094   0.06090   0.00889  -0.01222  -0.00021
   2    28     1          0.07245  -0.04540  -0.28681   0.01026   0.00093
   3    28     1          0.00005  -0.00109   0.00041   0.00017  -0.00026
   1    29     1         -0.00094   0.06090   0.00889  -0.01222   0.00021
   2    29     1          0.07245  -0.04540  -0.28681   0.01026  -0.00093
   3    29     1         -0.00006   0.00109  -0.00041  -0.00017  -0.00026
   1    30     1          0.08246  -0.21488  -0.13698   0.03084   0.00000
   2    30     1          0.00316  -0.01034   0.07466   0.00097   0.00000
   3    30     1          0.00000   0.00000   0.00000   0.00000   0.02630
   1    31     1          0.08496  -0.22336   0.06316   0.02838  -0.03861
   2    31     1          0.00146  -0.00763   0.08482   0.00006   0.00255
   3    31     1         -0.00003   0.00054   0.00142   0.00034   0.03084
   1    32     1          0.08496  -0.22336   0.06316   0.02838   0.03861
   2    32     1          0.00146  -0.00763   0.08482   0.00006  -0.00255
   3    32     1          0.00003  -0.00054  -0.00142  -0.00034   0.03084
   1    33     1          0.01001  -0.13360   0.00054  -0.21339  -0.20954
   2    33     1          0.00029  -0.00069   0.05364  -0.00129  -0.00117
   3    33     1          0.33954  -0.28972   0.00178  -0.44536  -0.44608
   1    34     1         -0.01001  -0.13360   0.00054  -0.21339  -0.20954
   2    34     1         -0.00029  -0.00069   0.05364  -0.00129  -0.00117
   3    34     1          0.33954   0.28972  -0.00178   0.44536   0.44608
   1    35     1         -0.01001  -0.13360   0.00054  -0.21340   0.20952
   2    35     1         -0.00029  -0.00069   0.05364  -0.00129   0.00117
   3    35     1         -0.33954  -0.28972   0.00178  -0.44540   0.44605
   1    36     1          0.01001  -0.13360   0.00054  -0.21340   0.20952
   2    36     1          0.00029  -0.00069   0.05364  -0.00129   0.00117
   3    36     1         -0.33954   0.28972  -0.00178   0.44540  -0.44605
                          41        42        43        44        45
                           A         A         A         A         A
       Frequencies ---   553.7052  555.0637  556.1650  561.5198  562.0281
    Reduced masses ---     4.9720    5.1948    4.9035    3.3577    5.3463
   Force constants ---     0.8981    0.9430    0.8936    0.6238    0.9950
    IR Intensities ---     0.0000    0.0065    0.0000    0.0000    3.1295
  Raman Activities ---     0.5759    0.0000    0.8051    0.0303    0.0000
    Depol. (Plane) ---     0.7500    0.6286    0.7500    0.3042    0.1681
    Depol. (Unpol) ---     0.8571    0.7720    0.8571    0.4665    0.2879
 Coord Atom Element:
   1     1     6          0.00000   0.00000   0.00000  -0.18986   0.00000
   2     1     6          0.00000   0.00000   0.00000  -0.00407   0.00000
   3     1     6          0.10993   0.08206  -0.00133   0.00000  -0.08491
   1     2     6          0.00000   0.00000   0.00000  -0.00764   0.00000
   2     2     6          0.00000   0.00000   0.00000   0.00871   0.00000
   3     2     6         -0.06695  -0.04343   0.00129   0.00000   0.04440
   1     3     6          0.00000   0.00000   0.00000  -0.00453   0.00000
   2     3     6          0.00000   0.00000   0.00000   0.20841   0.00000
   3     3     6          0.00137  -0.08805   0.10615   0.00000  -0.07945
   1     4     6          0.00000   0.00000   0.00000   0.00966   0.00000
   2     4     6          0.00000   0.00000   0.00000   0.00866   0.00000
   3     4     6         -0.00129   0.04657  -0.06417   0.00000   0.04160
   1     5     1          0.00000   0.00000   0.00000   0.09555   0.00000
   2     5     1          0.00000   0.00000   0.00000   0.32385   0.00000
   3     5     1         -0.21125  -0.14175   0.00231   0.00000   0.15056
   1     6     1          0.02049   0.01283  -0.00022   0.12595  -0.01352
   2     6     1          0.33552   0.22372  -0.00296  -0.13458  -0.23937
   3     6     1         -0.22646  -0.14935   0.00266  -0.00657   0.15765
   1     7     1         -0.02049  -0.01283   0.00022   0.12595   0.01352
   2     7     1         -0.33552  -0.22372   0.00296  -0.13459   0.23937
   3     7     1         -0.22646  -0.14935   0.00266   0.00657   0.15765
   1     8     1          0.00000   0.00000   0.00000   0.35480   0.00000
   2     8     1          0.00000   0.00000   0.00000  -0.10423   0.00000
   3     8     1         -0.00232   0.15141  -0.20452   0.00000   0.14047
   1     9     1          0.00321  -0.24011   0.32735  -0.14724  -0.22435
   2     9     1         -0.00018   0.01404  -0.02033  -0.13797   0.01289
   3     9     1         -0.00276   0.16065  -0.22035  -0.00729   0.14811
   1    10     1         -0.00321   0.24011  -0.32735  -0.14724   0.22435
   2    10     1          0.00018  -0.01404   0.02033  -0.13797  -0.01290
   3    10     1         -0.00276   0.16065  -0.22035   0.00729   0.14811
   1    11     8         -0.00349  -0.00202   0.00541   0.06571   0.00158
   2    11     8          0.23274   0.17020  -0.00259  -0.00819  -0.18490
   3    11     8         -0.00484  -0.02131  -0.00010   0.00387   0.02426
   1    12     8          0.00349   0.00202  -0.00541   0.06571  -0.00158
   2    12     8         -0.23274  -0.17020   0.00259  -0.00819   0.18490
   3    12     8         -0.00484  -0.02131  -0.00010  -0.00387   0.02426
   1    13     8          0.00268  -0.18197   0.22854  -0.00901  -0.17275
   2    13     8          0.00458  -0.00217   0.00343  -0.07363  -0.00146
   3    13     8          0.00007   0.02232  -0.00619   0.00429   0.02245
   1    14     8          0.00268   0.18197   0.22854   0.00901   0.17275
   2    14     8          0.00458   0.00217   0.00343   0.07363   0.00146
   3    14     8         -0.00007   0.02232   0.00619   0.00429   0.02245
   1    15     8         -0.00012   0.00000   0.02180   0.00000   0.00000
   2    15     8          0.00277   0.00000   0.00017   0.00000   0.00000
   3    15     8          0.00000  -0.00078   0.00000   0.00034   0.01026
   1    16    45          0.00037   0.00000  -0.04469   0.00000   0.00000
   2    16    45         -0.04135   0.00000  -0.00038   0.00000   0.00000
   3    16    45          0.00000  -0.00017   0.00000  -0.00116  -0.01602
   1    17    45         -0.00037   0.00000   0.04469   0.00000   0.00000
   2    17    45          0.04135   0.00000   0.00038   0.00000   0.00000
   3    17    45          0.00000  -0.00017   0.00000   0.00116  -0.01602
   1    18     8         -0.00349   0.00202   0.00541  -0.06571  -0.00158
   2    18     8          0.23274  -0.17020  -0.00259   0.00819   0.18490
   3    18     8          0.00484  -0.02131   0.00010   0.00387   0.02426
   1    19     8         -0.00268   0.18197  -0.22854  -0.00902   0.17275
   2    19     8         -0.00458   0.00217  -0.00343  -0.07363   0.00146
   3    19     8          0.00007   0.02232  -0.00619  -0.00430   0.02245
   1    20     6          0.00000   0.00000   0.00000   0.00453   0.00000
   2    20     6          0.00000   0.00000   0.00000  -0.20841   0.00000
   3    20     6         -0.00137  -0.08805  -0.10615   0.00000  -0.07945
   1    21     8          0.00349  -0.00202  -0.00541  -0.06571   0.00158
   2    21     8         -0.23274   0.17021   0.00259   0.00819  -0.18490
   3    21     8          0.00484  -0.02131   0.00010  -0.00387   0.02426
   1    22     8         -0.00268  -0.18197  -0.22854   0.00902  -0.17275
   2    22     8         -0.00458  -0.00217  -0.00343   0.07363  -0.00146
   3    22     8         -0.00007   0.02232   0.00619  -0.00430   0.02245
   1    23     8          0.00012   0.00000  -0.02180   0.00000   0.00000
   2    23     8         -0.00277   0.00000  -0.00017   0.00000   0.00000
   3    23     8          0.00000  -0.00078   0.00000  -0.00034   0.01026
   1    24     6          0.00000   0.00000   0.00000   0.18986   0.00000
   2    24     6          0.00000   0.00000   0.00000   0.00407   0.00000
   3    24     6         -0.10993   0.08206   0.00133   0.00000  -0.08491
   1    25     6          0.00000   0.00000   0.00000  -0.00966   0.00000
   2    25     6          0.00000   0.00000   0.00000  -0.00866   0.00000
   3    25     6          0.00129   0.04657   0.06417   0.00000   0.04160
   1    26     6          0.00000   0.00000   0.00000   0.00764   0.00000
   2    26     6          0.00000   0.00000   0.00000  -0.00871   0.00000
   3    26     6          0.06695  -0.04343  -0.00129   0.00000   0.04440
   1    27     1          0.00000   0.00000   0.00000  -0.09555   0.00000
   2    27     1          0.00000   0.00000   0.00000  -0.32385   0.00000
   3    27     1          0.21125  -0.14175  -0.00231   0.00000   0.15056
   1    28     1         -0.02049   0.01283   0.00022  -0.12595  -0.01352
   2    28     1         -0.33552   0.22372   0.00296   0.13459  -0.23937
   3    28     1          0.22646  -0.14935  -0.00266   0.00657   0.15765
   1    29     1          0.02049  -0.01283  -0.00022  -0.12595   0.01352
   2    29     1          0.33552  -0.22372  -0.00296   0.13458   0.23937
   3    29     1          0.22646  -0.14935  -0.00266  -0.00657   0.15765
   1    30     1          0.00000   0.00000   0.00000  -0.35480   0.00000
   2    30     1          0.00000   0.00000   0.00000   0.10423   0.00000
   3    30     1          0.00232   0.15141   0.20452   0.00000   0.14047
   1    31     1         -0.00321  -0.24011  -0.32735   0.14724  -0.22435
   2    31     1          0.00018   0.01404   0.02033   0.13797   0.01290
   3    31     1          0.00276   0.16065   0.22035   0.00729   0.14811
   1    32     1          0.00321   0.24011   0.32735   0.14724   0.22435
   2    32     1         -0.00018  -0.01404  -0.02033   0.13797  -0.01289
   3    32     1          0.00276   0.16065   0.22035  -0.00729   0.14811
   1    33     1         -0.00040   0.00039   0.04387  -0.00004   0.00046
   2    33     1         -0.00331   0.00069   0.00083   0.00031   0.00002
   3    33     1         -0.00082  -0.00053   0.09885  -0.00039   0.01037
   1    34     1         -0.00040  -0.00039   0.04387   0.00004  -0.00046
   2    34     1         -0.00331  -0.00069   0.00083  -0.00031  -0.00002
   3    34     1          0.00082  -0.00053  -0.09885  -0.00039   0.01037
   1    35     1          0.00040   0.00039  -0.04387   0.00004   0.00046
   2    35     1          0.00331   0.00069  -0.00083  -0.00031   0.00002
   3    35     1          0.00082  -0.00053  -0.09885   0.00039   0.01037
   1    36     1          0.00040  -0.00039  -0.04387  -0.00004  -0.00046
   2    36     1          0.00331  -0.00069  -0.00083   0.00031  -0.00002
   3    36     1         -0.00082  -0.00053   0.09885   0.00039   0.01037
                          46        47        48        49        50
                           A         A         A         A         A
       Frequencies ---   573.4272  577.1588  578.3518  660.6282  660.8444
    Reduced masses ---     3.5400    3.6693    3.6503    9.1145    9.0135
   Force constants ---     0.6858    0.7202    0.7194    2.3437    2.3192
    IR Intensities ---     0.0000    5.0866    5.2574   76.6806   80.2481
  Raman Activities ---     4.6570    0.0000    0.0000    0.0000    0.0000
    Depol. (Plane) ---     0.7499    0.6248    0.1933    0.0000    0.7178
    Depol. (Unpol) ---     0.8571    0.7691    0.3240    0.0000    0.8357
 Coord Atom Element:
   1     1     6          0.20685  -0.01123   0.27807  -0.05162  -0.00245
   2     1     6          0.00397  -0.00250   0.00310  -0.09014  -0.00564
   3     1     6          0.00000   0.00000   0.00000   0.00000   0.00000
   1     2     6          0.01274  -0.00045   0.01923   0.01309   0.00011
   2     2     6         -0.01078  -0.00785  -0.01781  -0.25681  -0.01676
   3     2     6          0.00000   0.00000   0.00000   0.00000   0.00000
   1     3     6         -0.00362  -0.00348  -0.00295   0.00566  -0.08914
   2     3     6          0.18719   0.27910   0.01115  -0.00174   0.05055
   3     3     6          0.00000   0.00000   0.00000   0.00000   0.00000
   1     4     6          0.00988   0.01738  -0.00876   0.01693  -0.25491
   2     4     6          0.01178   0.01904   0.00041   0.00027  -0.01332
   3     4     6          0.00000   0.00000   0.00000   0.00000   0.00000
   1     5     1         -0.10087   0.00618  -0.13305   0.03102   0.00037
   2     5     1         -0.35764   0.01259  -0.48253  -0.20309  -0.01573
   3     5     1          0.00000   0.00000   0.00000   0.00000   0.00000
   1     6     1         -0.13472   0.00721  -0.17872   0.02272  -0.00003
   2     6     1          0.14661  -0.01620   0.19328  -0.29039  -0.01763
   3     6     1          0.00754  -0.00039   0.01009   0.00464   0.00009
   1     7     1         -0.13472   0.00721  -0.17872   0.02272  -0.00003
   2     7     1          0.14661  -0.01620   0.19328  -0.29039  -0.01763
   3     7     1         -0.00754   0.00039  -0.01009  -0.00464  -0.00009
   1     8     1          0.32299   0.48225   0.01150   0.01705  -0.20382
   2     8     1         -0.09066  -0.13312  -0.00615   0.00016  -0.03040
   3     8     1          0.00000   0.00000   0.00000   0.00000   0.00000
   1     9     1         -0.13216  -0.19375  -0.01700   0.01730  -0.28794
   2     9     1         -0.12158  -0.17930  -0.00717  -0.00039  -0.02193
   3     9     1         -0.00687  -0.01015  -0.00041  -0.00014   0.00490
   1    10     1         -0.13216  -0.19375  -0.01700   0.01730  -0.28794
   2    10     1         -0.12158  -0.17930  -0.00717  -0.00039  -0.02193
   3    10     1          0.00687   0.01015   0.00041   0.00014  -0.00490
   1    11     8         -0.08479   0.00440  -0.12089   0.01332   0.00163
   2    11     8          0.00999  -0.00328   0.01583   0.23531   0.01465
   3    11     8         -0.00522  -0.00018  -0.01014  -0.22060  -0.01392
   1    12     8         -0.08479   0.00440  -0.12089   0.01332   0.00163
   2    12     8          0.00999  -0.00328   0.01583   0.23531   0.01465
   3    12     8          0.00522   0.00018   0.01014   0.22060   0.01392
   1    13     8         -0.00909  -0.01554  -0.00283  -0.01480   0.23422
   2    13     8         -0.07796  -0.12152  -0.00442   0.00092  -0.01287
   3    13     8          0.00481   0.00978  -0.00082   0.01400  -0.21842
   1    14     8          0.00909  -0.01554  -0.00283  -0.01480   0.23422
   2    14     8          0.07796  -0.12152  -0.00442   0.00092  -0.01287
   3    14     8          0.00481  -0.00978   0.00082  -0.01400   0.21842
   1    15     8          0.00000  -0.00146  -0.00356  -0.00062   0.01289
   2    15     8          0.00000  -0.00059   0.00041   0.00442   0.00029
   3    15     8         -0.00010   0.00000   0.00000   0.00000   0.00000
   1    16    45          0.00000   0.00224   0.01049   0.00115  -0.02685
   2    16    45          0.00000   0.01027  -0.00209  -0.02580  -0.00111
   3    16    45          0.00009   0.00000   0.00000   0.00000   0.00000
   1    17    45          0.00000   0.00224   0.01049   0.00115  -0.02685
   2    17    45          0.00000   0.01027  -0.00209  -0.02580  -0.00111
   3    17    45         -0.00009   0.00000   0.00000   0.00000   0.00000
   1    18     8          0.08479   0.00440  -0.12089   0.01332   0.00163
   2    18     8         -0.00999  -0.00328   0.01583   0.23531   0.01465
   3    18     8         -0.00522   0.00018   0.01014   0.22060   0.01392
   1    19     8         -0.00909  -0.01554  -0.00283  -0.01480   0.23422
   2    19     8         -0.07796  -0.12152  -0.00442   0.00092  -0.01287
   3    19     8         -0.00481  -0.00978   0.00082  -0.01400   0.21842
   1    20     6          0.00362  -0.00348  -0.00295   0.00566  -0.08914
   2    20     6         -0.18719   0.27910   0.01115  -0.00174   0.05055
   3    20     6          0.00000   0.00000   0.00000   0.00000   0.00000
   1    21     8          0.08479   0.00440  -0.12089   0.01332   0.00163
   2    21     8         -0.00999  -0.00328   0.01583   0.23531   0.01465
   3    21     8          0.00522  -0.00018  -0.01014  -0.22060  -0.01392
   1    22     8          0.00909  -0.01554  -0.00283  -0.01480   0.23422
   2    22     8          0.07796  -0.12152  -0.00442   0.00092  -0.01287
   3    22     8         -0.00481   0.00978  -0.00082   0.01400  -0.21842
   1    23     8          0.00000  -0.00146  -0.00356  -0.00062   0.01289
   2    23     8          0.00000  -0.00059   0.00041   0.00442   0.00029
   3    23     8          0.00010   0.00000   0.00000   0.00000   0.00000
   1    24     6         -0.20685  -0.01123   0.27807  -0.05162  -0.00245
   2    24     6         -0.00397  -0.00250   0.00310  -0.09014  -0.00564
   3    24     6          0.00000   0.00000   0.00000   0.00000   0.00000
   1    25     6         -0.00988   0.01738  -0.00876   0.01693  -0.25491
   2    25     6         -0.01178   0.01904   0.00041   0.00027  -0.01332
   3    25     6          0.00000   0.00000   0.00000   0.00000   0.00000
   1    26     6         -0.01274  -0.00045   0.01923   0.01309   0.00011
   2    26     6          0.01078  -0.00785  -0.01781  -0.25681  -0.01676
   3    26     6          0.00000   0.00000   0.00000   0.00000   0.00000
   1    27     1          0.10087   0.00618  -0.13305   0.03102   0.00037
   2    27     1          0.35764   0.01259  -0.48253  -0.20309  -0.01573
   3    27     1          0.00000   0.00000   0.00000   0.00000   0.00000
   1    28     1          0.13472   0.00721  -0.17872   0.02272  -0.00003
   2    28     1         -0.14661  -0.01620   0.19328  -0.29039  -0.01763
   3    28     1         -0.00754  -0.00039   0.01009   0.00464   0.00009
   1    29     1          0.13472   0.00721  -0.17872   0.02272  -0.00003
   2    29     1         -0.14661  -0.01620   0.19328  -0.29039  -0.01763
   3    29     1          0.00754   0.00039  -0.01009  -0.00464  -0.00009
   1    30     1         -0.32299   0.48225   0.01150   0.01705  -0.20382
   2    30     1          0.09066  -0.13312  -0.00615   0.00016  -0.03040
   3    30     1          0.00000   0.00000   0.00000   0.00000   0.00000
   1    31     1          0.13216  -0.19375  -0.01700   0.01730  -0.28794
   2    31     1          0.12158  -0.17930  -0.00717  -0.00039  -0.02193
   3    31     1          0.00687  -0.01015  -0.00041  -0.00014   0.00490
   1    32     1          0.13216  -0.19375  -0.01700   0.01730  -0.28794
   2    32     1          0.12158  -0.17930  -0.00717  -0.00039  -0.02193
   3    32     1         -0.00687   0.01015   0.00041   0.00014  -0.00490
   1    33     1          0.00001   0.00338   0.01219   0.00051  -0.02252
   2    33     1         -0.00251   0.00350  -0.00089  -0.00037   0.00019
   3    33     1          0.00010   0.00735   0.02409   0.00161  -0.05324
   1    34     1         -0.00001   0.00338   0.01219   0.00051  -0.02252
   2    34     1          0.00251   0.00350  -0.00089  -0.00037   0.00019
   3    34     1          0.00010  -0.00735  -0.02409  -0.00161   0.05324
   1    35     1         -0.00001   0.00338   0.01219   0.00051  -0.02252
   2    35     1          0.00251   0.00350  -0.00089  -0.00037   0.00019
   3    35     1         -0.00010   0.00735   0.02409   0.00161  -0.05324
   1    36     1          0.00001   0.00338   0.01219   0.00051  -0.02252
   2    36     1         -0.00251   0.00350  -0.00089  -0.00037   0.00019
   3    36     1         -0.00010  -0.00735  -0.02409  -0.00161   0.05324
                          51        52        53        54        55
                           A         A         A         A         A
       Frequencies ---   680.6447  689.0582  891.1275  891.7203  900.7821
    Reduced masses ---     8.4870    8.5070    7.2644    7.2897    7.6024
   Force constants ---     2.3166    2.3798    3.3988    3.4152    3.6345
    IR Intensities ---     0.0000    0.0000    2.9868    2.1269    0.0000
  Raman Activities ---     0.0818    0.7933    0.0000    0.0000   28.6891
    Depol. (Plane) ---     0.4626    0.0495    0.2601    0.7191    0.7309
    Depol. (Unpol) ---     0.6326    0.0943    0.4128    0.0000    0.8445
 Coord Atom Element:
   1     1     6         -0.02884   0.02942   0.02249  -0.00129  -0.01661
   2     1     6         -0.04899   0.04730  -0.14194   0.00042   0.11708
   3     1     6          0.00000   0.00000   0.00000   0.00000   0.00000
   1     2     6          0.00932  -0.01070  -0.01833   0.00031   0.01379
   2     2     6         -0.18026   0.19934   0.26492  -0.00080  -0.19916
   3     2     6          0.00000   0.00000   0.00000   0.00000   0.00000
   1     3     6          0.05344   0.04307   0.00041   0.14156  -0.09436
   2     3     6         -0.03127  -0.02666   0.00127   0.02262  -0.01363
   3     3     6          0.00000   0.00000   0.00000   0.00000   0.00000
   1     4     6          0.19770   0.18245  -0.00079  -0.26466   0.16120
   2     4     6          0.01044   0.00999  -0.00028  -0.01853   0.01132
   3     4     6          0.00000   0.00000   0.00000   0.00000   0.00000
   1     5     1          0.01808  -0.01911  -0.00967  -0.00064   0.00648
   2     5     1         -0.15551   0.17579   0.31015  -0.00380  -0.23698
   3     5     1          0.00000   0.00000   0.00000   0.00000   0.00000
   1     6     1          0.01152  -0.01081   0.00786  -0.00127  -0.00593
   2     6     1         -0.19911   0.21794   0.29208   0.00044  -0.22176
   3     6     1          0.00315  -0.00353  -0.01300   0.00027   0.01029
   1     7     1          0.01152  -0.01081   0.00786  -0.00127  -0.00593
   2     7     1         -0.19911   0.21794   0.29208   0.00044  -0.22176
   3     7     1         -0.00315   0.00353   0.01300  -0.00027  -0.01029
   1     8     1          0.17160   0.16168  -0.00378  -0.31020   0.19223
   2     8     1          0.01969   0.01741   0.00068  -0.00975   0.00525
   3     8     1          0.00000   0.00000   0.00000   0.00000   0.00000
   1     9     1          0.21819   0.19934   0.00043  -0.29142   0.17925
   2     9     1          0.01234   0.00968   0.00128   0.00774  -0.00474
   3     9     1         -0.00359  -0.00335   0.00026   0.01284  -0.00825
   1    10     1          0.21819   0.19934   0.00043  -0.29142   0.17925
   2    10     1          0.01234   0.00968   0.00128   0.00774  -0.00474
   3    10     1          0.00359   0.00335  -0.00026  -0.01284   0.00825
   1    11     8          0.00660  -0.00576  -0.00137   0.00133   0.00106
   2    11     8          0.15939  -0.17378  -0.10433   0.00022   0.07421
   3    11     8         -0.13488   0.14491  -0.24443   0.00072   0.20311
   1    12     8          0.00660  -0.00576  -0.00137   0.00133   0.00106
   2    12     8          0.15939  -0.17378  -0.10433   0.00022   0.07421
   3    12     8          0.13488  -0.14491   0.24443  -0.00072  -0.20311
   1    13     8         -0.17441  -0.15851   0.00022   0.10437  -0.06020
   2    13     8          0.00697   0.00506  -0.00143  -0.00133   0.00086
   3    13     8          0.14744   0.13203   0.00071   0.24545  -0.16420
   1    14     8          0.17441   0.15851   0.00022   0.10437   0.06020
   2    14     8         -0.00697  -0.00506  -0.00143  -0.00133  -0.00086
   3    14     8          0.14744   0.13203  -0.00071  -0.24545  -0.16420
   1    15     8          0.00000   0.00000   0.00001  -0.00237   0.00000
   2    15     8          0.00000   0.00000   0.00105  -0.00002   0.00000
   3    15     8         -0.00114   0.00455   0.00000   0.00000   0.00000
   1    16    45          0.00000   0.00000  -0.00012  -0.00925   0.00000
   2    16    45          0.00000   0.00000   0.00934  -0.00011   0.00000
   3    16    45         -0.00090  -0.02619   0.00000   0.00000  -0.00115
   1    17    45          0.00000   0.00000  -0.00012  -0.00925   0.00000
   2    17    45          0.00000   0.00000   0.00934  -0.00011   0.00000
   3    17    45          0.00090   0.02619   0.00000   0.00000   0.00115
   1    18     8         -0.00660   0.00576  -0.00137   0.00133  -0.00106
   2    18     8         -0.15939   0.17378  -0.10433   0.00022  -0.07421
   3    18     8         -0.13488   0.14491   0.24443  -0.00072   0.20311
   1    19     8         -0.17441  -0.15851   0.00022   0.10437  -0.06020
   2    19     8          0.00697   0.00506  -0.00143  -0.00133   0.00086
   3    19     8         -0.14744  -0.13203  -0.00071  -0.24545   0.16420
   1    20     6         -0.05344  -0.04307   0.00041   0.14156   0.09436
   2    20     6          0.03127   0.02666   0.00127   0.02262   0.01363
   3    20     6          0.00000   0.00000   0.00000   0.00000   0.00000
   1    21     8         -0.00660   0.00576  -0.00137   0.00133  -0.00106
   2    21     8         -0.15939   0.17378  -0.10433   0.00022  -0.07421
   3    21     8          0.13488  -0.14491  -0.24443   0.00072  -0.20311
   1    22     8          0.17441   0.15851   0.00022   0.10437   0.06020
   2    22     8         -0.00697  -0.00506  -0.00143  -0.00133  -0.00086
   3    22     8         -0.14744  -0.13203   0.00071   0.24545   0.16420
   1    23     8          0.00000   0.00000   0.00001  -0.00237   0.00000
   2    23     8          0.00000   0.00000   0.00105  -0.00002   0.00000
   3    23     8          0.00114  -0.00455   0.00000   0.00000   0.00000
   1    24     6          0.02884  -0.02942   0.02249  -0.00129   0.01661
   2    24     6          0.04899  -0.04730  -0.14194   0.00042  -0.11708
   3    24     6          0.00000   0.00000   0.00000   0.00000   0.00000
   1    25     6         -0.19770  -0.18245  -0.00079  -0.26466  -0.16120
   2    25     6         -0.01044  -0.00999  -0.00028  -0.01853  -0.01132
   3    25     6          0.00000   0.00000   0.00000   0.00000   0.00000
   1    26     6         -0.00932   0.01070  -0.01833   0.00031  -0.01379
   2    26     6          0.18026  -0.19934   0.26492  -0.00080   0.19916
   3    26     6          0.00000   0.00000   0.00000   0.00000   0.00000
   1    27     1         -0.01808   0.01911  -0.00967  -0.00064  -0.00648
   2    27     1          0.15551  -0.17579   0.31015  -0.00380   0.23698
   3    27     1          0.00000   0.00000   0.00000   0.00000   0.00000
   1    28     1         -0.01152   0.01081   0.00786  -0.00127   0.00593
   2    28     1          0.19911  -0.21794   0.29208   0.00044   0.22176
   3    28     1         -0.00315   0.00353  -0.01300   0.00027  -0.01029
   1    29     1         -0.01152   0.01081   0.00786  -0.00127   0.00593
   2    29     1          0.19911  -0.21794   0.29208   0.00044   0.22176
   3    29     1          0.00315  -0.00353   0.01300  -0.00027   0.01029
   1    30     1         -0.17160  -0.16168  -0.00378  -0.31020  -0.19223
   2    30     1         -0.01969  -0.01741   0.00068  -0.00975  -0.00525
   3    30     1          0.00000   0.00000   0.00000   0.00000   0.00000
   1    31     1         -0.21819  -0.19934   0.00043  -0.29142  -0.17925
   2    31     1         -0.01234  -0.00968   0.00128   0.00774   0.00474
   3    31     1          0.00359   0.00335   0.00026   0.01284   0.00825
   1    32     1         -0.21819  -0.19934   0.00043  -0.29142  -0.17925
   2    32     1         -0.01234  -0.00968   0.00128   0.00774   0.00474
   3    32     1         -0.00359  -0.00335  -0.00026  -0.01284  -0.00825
   1    33     1         -0.00074  -0.00140   0.00008   0.00014  -0.00072
   2    33     1          0.00005  -0.00008   0.00628   0.00015   0.00003
   3    33     1          0.00024  -0.00701   0.00018   0.00428  -0.00103
   1    34     1          0.00074   0.00140   0.00008   0.00014   0.00072
   2    34     1         -0.00005   0.00008   0.00628   0.00015  -0.00003
   3    34     1          0.00024  -0.00701  -0.00018  -0.00428  -0.00103
   1    35     1          0.00074   0.00140   0.00008   0.00014   0.00072
   2    35     1         -0.00005   0.00008   0.00628   0.00015  -0.00003
   3    35     1         -0.00024   0.00701   0.00018   0.00428   0.00103
   1    36     1         -0.00074  -0.00140   0.00008   0.00014  -0.00072
   2    36     1          0.00005  -0.00008   0.00628   0.00015   0.00003
   3    36     1         -0.00024   0.00701  -0.00018  -0.00428   0.00103
                          56        57        58        59        60
                           A         A         A         A         A
       Frequencies ---   903.5345 1014.1410 1014.2185 1015.9716 1016.4334
    Reduced masses ---     7.7471    1.5439    1.5436    1.5271    1.5187
   Force constants ---     3.7263    0.9356    0.9355    0.9287    0.9244
    IR Intensities ---     0.0000    0.0000    0.0000    0.0032   10.8680
  Raman Activities ---    47.4701    5.7892    5.8769    0.0000    0.0000
    Depol. (Plane) ---     0.0170    0.7500    0.7500    0.7487    0.7476
    Depol. (Unpol) ---     0.0335    0.8571    0.8571    0.8563    0.8556
 Coord Atom Element:
   1     1     6         -0.01286   0.00000   0.00000   0.00000   0.00000
   2     1     6          0.09471   0.00000   0.00000   0.00000   0.00000
   3     1     6          0.00000  -0.01758  -0.00031   0.00802   0.00558
   1     2     6          0.01086   0.00000   0.00000   0.00000   0.00000
   2     2     6         -0.16023   0.00000   0.00000   0.00000   0.00000
   3     2     6          0.00000  -0.12149  -0.00177   0.08973   0.08160
   1     3     6          0.11687   0.00000   0.00000   0.00000   0.00000
   2     3     6          0.01617   0.00000   0.00000   0.00000   0.00000
   3     3     6          0.00000   0.00031  -0.01748  -0.00748   0.00641
   1     4     6         -0.19845   0.00000   0.00000   0.00000   0.00000
   2     4     6         -0.01365   0.00000   0.00000   0.00000   0.00000
   3     4     6          0.00000   0.00177  -0.12148  -0.08158   0.08970
   1     5     1          0.00557   0.00000   0.00000   0.00000   0.00000
   2     5     1         -0.18874   0.00000   0.00000   0.00000   0.00000
   3     5     1          0.00000   0.18680   0.00254  -0.13890  -0.12676
   1     6     1         -0.00443  -0.03838  -0.00040   0.02867   0.02624
   2     6     1         -0.17852  -0.45610  -0.00683   0.33751   0.30693
   3     6     1          0.00813   0.10976   0.00158  -0.08168  -0.07439
   1     7     1         -0.00443   0.03838   0.00040  -0.02867  -0.02624
   2     7     1         -0.17852   0.45610   0.00683  -0.33751  -0.30693
   3     7     1         -0.00813   0.10976   0.00158  -0.08168  -0.07439
   1     8     1         -0.23435   0.00000   0.00000   0.00000   0.00000
   2     8     1         -0.00691   0.00000   0.00000   0.00000   0.00000
   3     8     1          0.00000  -0.00254   0.18689   0.12629  -0.13934
   1     9     1         -0.22077   0.00684  -0.45606  -0.30682   0.33736
   2     9     1          0.00548  -0.00039   0.03793   0.02574  -0.02848
   3     9     1          0.00998  -0.00159   0.11002   0.07441  -0.08194
   1    10     1         -0.22077  -0.00684   0.45606   0.30682  -0.33736
   2    10     1          0.00548   0.00039  -0.03793  -0.02574   0.02848
   3    10     1         -0.00998  -0.00159   0.11002   0.07441  -0.08194
   1    11     8          0.00075  -0.00044  -0.00030   0.00047   0.00056
   2    11     8          0.06051   0.04362   0.00060  -0.03243  -0.02907
   3    11     8          0.16673   0.03877   0.00060  -0.02666  -0.02358
   1    12     8          0.00075   0.00044   0.00030  -0.00047  -0.00056
   2    12     8          0.06051  -0.04362  -0.00060   0.03243   0.02907
   3    12     8         -0.16673   0.03877   0.00060  -0.02666  -0.02358
   1    13     8          0.07509  -0.00059   0.04373   0.02959  -0.03206
   2    13     8         -0.00093  -0.00031   0.00045   0.00042  -0.00061
   3    13     8          0.20616  -0.00059   0.03860   0.02422  -0.02593
   1    14     8         -0.07509  -0.00059   0.04373  -0.02959   0.03206
   2    14     8          0.00093  -0.00031   0.00045  -0.00042   0.00061
   3    14     8          0.20616   0.00059  -0.03860   0.02422  -0.02593
   1    15     8          0.00000   0.00003  -0.00036   0.00000   0.00000
   2    15     8          0.00000  -0.00050  -0.00001   0.00000   0.00000
   3    15     8          0.00000   0.00000   0.00000   0.00027  -0.00037
   1    16    45          0.00000  -0.00022  -0.00165   0.00000   0.00000
   2    16    45          0.00000  -0.00159   0.00022   0.00000   0.00000
   3    16    45         -0.01075   0.00000   0.00000  -0.00002  -0.00029
   1    17    45          0.00000   0.00022   0.00165   0.00000   0.00000
   2    17    45          0.00000   0.00159  -0.00022   0.00000   0.00000
   3    17    45          0.01075   0.00000   0.00000  -0.00002  -0.00029
   1    18     8         -0.00075  -0.00044  -0.00030  -0.00047  -0.00056
   2    18     8         -0.06051   0.04362   0.00060   0.03243   0.02907
   3    18     8          0.16673  -0.03877  -0.00060  -0.02665  -0.02358
   1    19     8          0.07509   0.00059  -0.04373  -0.02959   0.03206
   2    19     8         -0.00093   0.00031  -0.00045  -0.00042   0.00061
   3    19     8         -0.20616  -0.00059   0.03860   0.02422  -0.02593
   1    20     6         -0.11687   0.00000   0.00000   0.00000   0.00000
   2    20     6         -0.01617   0.00000   0.00000   0.00000   0.00000
   3    20     6          0.00000  -0.00031   0.01748  -0.00748   0.00641
   1    21     8         -0.00075   0.00044   0.00030   0.00047   0.00056
   2    21     8         -0.06051  -0.04362  -0.00060  -0.03243  -0.02907
   3    21     8         -0.16673  -0.03877  -0.00060  -0.02665  -0.02358
   1    22     8         -0.07509   0.00059  -0.04373   0.02959  -0.03206
   2    22     8          0.00093   0.00031  -0.00045   0.00042  -0.00061
   3    22     8         -0.20616   0.00059  -0.03860   0.02422  -0.02593
   1    23     8          0.00000  -0.00003   0.00036   0.00000   0.00000
   2    23     8          0.00000   0.00050   0.00001   0.00000   0.00000
   3    23     8          0.00000   0.00000   0.00000   0.00027  -0.00037
   1    24     6          0.01286   0.00000   0.00000   0.00000   0.00000
   2    24     6         -0.09470   0.00000   0.00000   0.00000   0.00000
   3    24     6          0.00000   0.01758   0.00031   0.00802   0.00558
   1    25     6          0.19845   0.00000   0.00000   0.00000   0.00000
   2    25     6          0.01365   0.00000   0.00000   0.00000   0.00000
   3    25     6          0.00000  -0.00177   0.12148  -0.08158   0.08970
   1    26     6         -0.01086   0.00000   0.00000   0.00000   0.00000
   2    26     6          0.16023   0.00000   0.00000   0.00000   0.00000
   3    26     6          0.00000   0.12149   0.00177   0.08973   0.08160
   1    27     1         -0.00557   0.00000   0.00000   0.00000   0.00000
   2    27     1          0.18874   0.00000   0.00000   0.00000   0.00000
   3    27     1          0.00000  -0.18680  -0.00254  -0.13890  -0.12676
   1    28     1          0.00443   0.03838   0.00040   0.02867   0.02624
   2    28     1          0.17852   0.45611   0.00683   0.33750   0.30693
   3    28     1         -0.00813  -0.10976  -0.00158  -0.08167  -0.07439
   1    29     1          0.00443  -0.03838  -0.00040  -0.02867  -0.02624
   2    29     1          0.17852  -0.45611  -0.00683  -0.33750  -0.30693
   3    29     1          0.00813  -0.10976  -0.00158  -0.08167  -0.07439
   1    30     1          0.23435   0.00000   0.00000   0.00000   0.00000
   2    30     1          0.00691   0.00000   0.00000   0.00000   0.00000
   3    30     1          0.00000   0.00254  -0.18689   0.12629  -0.13934
   1    31     1          0.22077  -0.00684   0.45606  -0.30682   0.33736
   2    31     1         -0.00548   0.00039  -0.03793   0.02574  -0.02849
   3    31     1         -0.00998   0.00159  -0.11002   0.07441  -0.08194
   1    32     1          0.22077   0.00684  -0.45606   0.30682  -0.33736
   2    32     1         -0.00548  -0.00039   0.03793  -0.02574   0.02849
   3    32     1          0.00998   0.00159  -0.11002   0.07441  -0.08194
   1    33     1          0.00045   0.00007  -0.00179  -0.00069   0.00108
   2    33     1          0.00002  -0.00223   0.00000   0.00004   0.00002
   3    33     1         -0.00003   0.00013  -0.00355  -0.00076   0.00147
   1    34     1         -0.00045   0.00007  -0.00179   0.00069  -0.00108
   2    34     1         -0.00002  -0.00223   0.00000  -0.00004  -0.00002
   3    34     1         -0.00003  -0.00013   0.00355  -0.00076   0.00147
   1    35     1         -0.00045  -0.00007   0.00179  -0.00069   0.00108
   2    35     1         -0.00002   0.00223   0.00000   0.00004   0.00002
   3    35     1          0.00003  -0.00013   0.00355  -0.00076   0.00147
   1    36     1          0.00045  -0.00007   0.00179   0.00069  -0.00108
   2    36     1          0.00002   0.00223   0.00000  -0.00004  -0.00002
   3    36     1          0.00003   0.00013  -0.00355  -0.00076   0.00147
                          61        62        63        64        65
                           A         A         A         A         A
       Frequencies ---  1042.8555 1044.2563 1044.3474 1044.5449 1336.6112
    Reduced masses ---     1.6037    1.6010    1.6029    1.6019    6.3411
   Force constants ---     1.0276    1.0286    1.0300    1.0298    6.6746
    IR Intensities ---     0.0000   16.6366   15.9094    0.0000    0.0000
  Raman Activities ---     0.6587    0.0000    0.0000    4.8092    1.5815
    Depol. (Plane) ---     0.0746    0.7493    0.7266    0.7499    0.6863
    Depol. (Unpol) ---     0.1389    0.8567    0.8417    0.8571    0.8140
 Coord Atom Element:
   1     1     6          0.08021   0.00045   0.11661   0.08473  -0.00491
   2     1     6          0.00349  -0.00053   0.00528   0.00372   0.30635
   3     1     6          0.00000   0.00000   0.00000   0.00000   0.00000
   1     2     6         -0.07712  -0.00063  -0.11219  -0.08126   0.00906
   2     2     6         -0.00854   0.00081  -0.01274  -0.00917  -0.05225
   3     2     6          0.00000   0.00000   0.00000   0.00000   0.00000
   1     3     6          0.00377   0.00541   0.00052  -0.00361  -0.28399
   2     3     6         -0.08458  -0.11623   0.00045   0.07993  -0.00480
   3     3     6          0.00000   0.00000   0.00000   0.00000   0.00000
   1     4     6         -0.00904  -0.01274  -0.00081   0.00867   0.04883
   2     4     6          0.08160   0.11222  -0.00062  -0.07691   0.00840
   3     4     6          0.00000   0.00000   0.00000   0.00000   0.00000
   1     5     1          0.04821  -0.00022   0.07035   0.05136  -0.02362
   2     5     1          0.35014   0.00168   0.50938   0.37002  -0.16605
   3     5     1          0.00000   0.00000   0.00000   0.00000   0.00000
   1     6     1          0.13904   0.00180   0.20253   0.14713  -0.02627
   2     6     1         -0.16796  -0.00117  -0.24489  -0.17781  -0.22877
   3     6     1         -0.03987  -0.00040  -0.05788  -0.04190   0.08165
   1     7     1          0.13904   0.00180   0.20253   0.14713  -0.02627
   2     7     1         -0.16796  -0.00117  -0.24489  -0.17781  -0.22877
   3     7     1          0.03987   0.00040   0.05788   0.04190  -0.08165
   1     8     1          0.37015   0.50894  -0.00168  -0.34985   0.15499
   2     8     1         -0.05074  -0.06994  -0.00022   0.04834  -0.02213
   3     8     1          0.00000   0.00000   0.00000   0.00000   0.00000
   1     9     1         -0.17790  -0.24517   0.00117   0.16848   0.21176
   2     9     1         -0.14740  -0.20293   0.00180   0.13953  -0.02338
   3     9     1         -0.04218  -0.05791   0.00040   0.03966  -0.07491
   1    10     1         -0.17790  -0.24517   0.00117   0.16848   0.21176
   2    10     1         -0.14740  -0.20293   0.00180   0.13953  -0.02338
   3    10     1          0.04218   0.05791  -0.00040  -0.03966   0.07491
   1    11     8         -0.01102   0.00005  -0.01543  -0.01178   0.00071
   2    11     8          0.00211   0.00008   0.00336   0.00235  -0.07800
   3    11     8          0.00116  -0.00022   0.00190   0.00144  -0.07955
   1    12     8         -0.01102   0.00005  -0.01543  -0.01178   0.00071
   2    12     8          0.00211   0.00008   0.00336   0.00235  -0.07800
   3    12     8         -0.00116   0.00022  -0.00190  -0.00144   0.07955
   1    13     8          0.00226   0.00340  -0.00005  -0.00225   0.07205
   2    13     8          0.01160   0.01533   0.00004  -0.01107   0.00069
   3    13     8          0.00123   0.00190   0.00021  -0.00136   0.07361
   1    14     8         -0.00226   0.00340  -0.00005   0.00225  -0.07205
   2    14     8         -0.01160   0.01533   0.00004   0.01108  -0.00069
   3    14     8          0.00123  -0.00190  -0.00021  -0.00136   0.07361
   1    15     8          0.00000  -0.00003   0.00002   0.00000   0.00000
   2    15     8          0.00000   0.00012   0.00002   0.00000   0.00000
   3    15     8         -0.00006   0.00000   0.00000  -0.00001   0.00117
   1    16    45          0.00000  -0.00040  -0.00034   0.00000   0.00000
   2    16    45          0.00000   0.00032  -0.00039   0.00000   0.00000
   3    16    45          0.00000   0.00000   0.00000   0.00000  -0.00017
   1    17    45          0.00000  -0.00040  -0.00034   0.00000   0.00000
   2    17    45          0.00000   0.00032  -0.00039   0.00000   0.00000
   3    17    45          0.00000   0.00000   0.00000   0.00000   0.00017
   1    18     8          0.01102   0.00005  -0.01543   0.01178  -0.00071
   2    18     8         -0.00211   0.00008   0.00336  -0.00235   0.07800
   3    18     8          0.00116   0.00022  -0.00190   0.00144  -0.07955
   1    19     8          0.00226   0.00340  -0.00005  -0.00225   0.07205
   2    19     8          0.01160   0.01533   0.00004  -0.01107   0.00069
   3    19     8         -0.00123  -0.00190  -0.00021   0.00136  -0.07361
   1    20     6         -0.00377   0.00541   0.00052   0.00361   0.28399
   2    20     6          0.08458  -0.11623   0.00045  -0.07993   0.00480
   3    20     6          0.00000   0.00000   0.00000   0.00000   0.00000
   1    21     8          0.01102   0.00005  -0.01543   0.01178  -0.00071
   2    21     8         -0.00211   0.00008   0.00336  -0.00235   0.07800
   3    21     8         -0.00116  -0.00022   0.00190  -0.00144   0.07955
   1    22     8         -0.00226   0.00340  -0.00005   0.00225  -0.07205
   2    22     8         -0.01160   0.01533   0.00004   0.01108  -0.00069
   3    22     8         -0.00123   0.00190   0.00021   0.00136  -0.07361
   1    23     8          0.00000  -0.00003   0.00002   0.00000   0.00000
   2    23     8          0.00000   0.00012   0.00002   0.00000   0.00000
   3    23     8          0.00006   0.00000   0.00000   0.00001  -0.00117
   1    24     6         -0.08021   0.00045   0.11661  -0.08472   0.00491
   2    24     6         -0.00349  -0.00053   0.00528  -0.00372  -0.30636
   3    24     6          0.00000   0.00000   0.00000   0.00000   0.00000
   1    25     6          0.00904  -0.01274  -0.00081  -0.00867  -0.04883
   2    25     6         -0.08160   0.11222  -0.00063   0.07691  -0.00840
   3    25     6          0.00000   0.00000   0.00000   0.00000   0.00000
   1    26     6          0.07712  -0.00063  -0.11219   0.08126  -0.00906
   2    26     6          0.00854   0.00081  -0.01274   0.00917   0.05225
   3    26     6          0.00000   0.00000   0.00000   0.00000   0.00000
   1    27     1         -0.04821  -0.00022   0.07035  -0.05136   0.02362
   2    27     1         -0.35014   0.00168   0.50938  -0.37001   0.16605
   3    27     1          0.00000   0.00000   0.00000   0.00000   0.00000
   1    28     1         -0.13904   0.00180   0.20253  -0.14713   0.02627
   2    28     1          0.16796  -0.00117  -0.24490   0.17781   0.22878
   3    28     1          0.03987  -0.00040  -0.05788   0.04190  -0.08165
   1    29     1         -0.13904   0.00180   0.20253  -0.14713   0.02627
   2    29     1          0.16796  -0.00117  -0.24490   0.17781   0.22878
   3    29     1         -0.03987   0.00040   0.05788  -0.04190   0.08165
   1    30     1         -0.37015   0.50894  -0.00168   0.34986  -0.15499
   2    30     1          0.05074  -0.06994  -0.00022  -0.04834   0.02213
   3    30     1          0.00000   0.00000   0.00000   0.00000   0.00000
   1    31     1          0.17790  -0.24517   0.00117  -0.16848  -0.21176
   2    31     1          0.14740  -0.20292   0.00180  -0.13953   0.02338
   3    31     1          0.04218  -0.05790   0.00040  -0.03966   0.07491
   1    32     1          0.17790  -0.24517   0.00117  -0.16848  -0.21176
   2    32     1          0.14740  -0.20292   0.00180  -0.13953   0.02338
   3    32     1         -0.04218   0.05790  -0.00040   0.03966  -0.07491
   1    33     1          0.00008  -0.00005   0.00059   0.00002   0.00412
   2    33     1          0.00000  -0.00146  -0.00041  -0.00083   0.00007
   3    33     1          0.00019  -0.00007   0.00099   0.00003   0.00577
   1    34     1         -0.00008  -0.00005   0.00059  -0.00002  -0.00412
   2    34     1          0.00000  -0.00146  -0.00041   0.00083  -0.00007
   3    34     1          0.00019   0.00007  -0.00099   0.00003   0.00577
   1    35     1         -0.00008  -0.00005   0.00059  -0.00002  -0.00412
   2    35     1          0.00000  -0.00146  -0.00041   0.00083  -0.00007
   3    35     1         -0.00019  -0.00007   0.00099  -0.00003  -0.00577
   1    36     1          0.00008  -0.00005   0.00059   0.00002   0.00412
   2    36     1          0.00000  -0.00146  -0.00041  -0.00083   0.00007
   3    36     1         -0.00019   0.00007  -0.00099  -0.00003  -0.00577
                          66        67        68        69        70
                           A         A         A         A         A
       Frequencies ---  1337.3797 1338.3943 1348.4251 1378.8898 1378.9094
    Reduced masses ---     6.2459    6.1625    5.1225    1.3073    5.2117
   Force constants ---     6.5819    6.5039    5.4877    1.4645    5.8385
    IR Intensities ---   308.7359  299.6952    0.0000    0.0000    0.0000
  Raman Activities ---     0.0000    0.0000   11.0465   12.0971    1.0914
    Depol. (Plane) ---     0.6718    0.7452    0.3847    0.7439    0.7500
    Depol. (Unpol) ---     0.8037    0.8540    0.5557    0.8532    0.8571
 Coord Atom Element:
   1     1     6         -0.00662  -0.00174   0.00368   0.00015   0.00000
   2     1     6          0.41503   0.00118  -0.25064   0.03353  -0.00005
   3     1     6          0.00000   0.00000   0.00000   0.00014   0.36625
   1     2     6          0.01235   0.00034  -0.00749   0.00794  -0.00001
   2     2     6         -0.06979  -0.00053   0.03136  -0.09156   0.00014
   3     2     6          0.00000   0.00000   0.00000  -0.00003  -0.08307
   1     3     6         -0.00119   0.41213  -0.27083  -0.01819   0.00003
   2     3     6         -0.00179   0.00692  -0.00425   0.00025   0.00000
   3     3     6          0.00000   0.00000   0.00000   0.00000  -0.00133
   1     4     6          0.00053  -0.06875   0.03458   0.05823  -0.00009
   2     4     6          0.00037  -0.01230   0.00808   0.00519  -0.00001
   3     4     6          0.00000   0.00000   0.00000   0.00000   0.00166
   1     5     1         -0.03344   0.00158   0.03330   0.12778  -0.00020
   2     5     1         -0.23002   0.00381   0.17231   0.32566  -0.00051
   3     5     1          0.00000   0.00000   0.00000   0.00018   0.44640
   1     6     1         -0.03464  -0.00376   0.01599  -0.11215  -0.21731
   2     6     1         -0.31335  -0.00118   0.22913   0.29653  -0.06796
   3     6     1          0.11209   0.00253  -0.08639  -0.09822   0.09504
   1     7     1         -0.03464  -0.00376   0.01599  -0.11198   0.21767
   2     7     1         -0.31335  -0.00118   0.22913   0.29658   0.06702
   3     7     1         -0.11209  -0.00253   0.08639   0.09830   0.09473
   1     8     1         -0.00383  -0.23347   0.18641  -0.21199   0.00034
   2     8     1          0.00160   0.03489  -0.03586   0.08268  -0.00013
   3     8     1          0.00000   0.00000   0.00000  -0.00001  -0.01966
   1     9     1          0.00125  -0.31489   0.24589  -0.19154  -0.00669
   2     9     1         -0.00384   0.03260  -0.01630  -0.07336  -0.01094
   3     9     1         -0.00261   0.11224  -0.09192   0.06266  -0.00214
   1    10     1          0.00125  -0.31489   0.24589  -0.19153   0.00730
   2    10     1         -0.00384   0.03260  -0.01630  -0.07335   0.01117
   3    10     1          0.00261  -0.11224   0.09192  -0.06266  -0.00194
   1    11     8          0.00083   0.00146  -0.00054   0.00002   0.00009
   2    11     8         -0.10241  -0.00035   0.06452  -0.00700  -0.05256
   3    11     8         -0.10890  -0.00030   0.06391  -0.00627  -0.12485
   1    12     8          0.00083   0.00146  -0.00054   0.00002  -0.00009
   2    12     8         -0.10241  -0.00035   0.06452  -0.00696   0.05258
   3    12     8          0.10890   0.00030  -0.06391   0.00617  -0.12487
   1    13     8          0.00035  -0.10137   0.06944   0.00360   0.00031
   2    13     8          0.00146  -0.00088   0.00062   0.00000   0.00134
   3    13     8          0.00030  -0.10774   0.06885   0.00320   0.00063
   1    14     8          0.00035  -0.10137  -0.06944  -0.00360   0.00032
   2    14     8          0.00146  -0.00088  -0.00062   0.00000   0.00134
   3    14     8         -0.00030   0.10774   0.06885   0.00320  -0.00064
   1    15     8          0.00001   0.00031   0.00000   0.00000  -0.00003
   2    15     8          0.00044  -0.00002   0.00000   0.00000   0.00262
   3    15     8          0.00000   0.00000  -0.00026   0.00017   0.00000
   1    16    45          0.00006  -0.00033   0.00000   0.00000  -0.00002
   2    16    45         -0.00033  -0.00006   0.00000   0.00000  -0.00352
   3    16    45          0.00000   0.00000   0.00336  -0.00013   0.00000
   1    17    45          0.00006  -0.00033   0.00000   0.00000   0.00002
   2    17    45         -0.00033  -0.00006   0.00000   0.00000   0.00352
   3    17    45          0.00000   0.00000  -0.00336   0.00013   0.00000
   1    18     8          0.00083   0.00146   0.00054  -0.00002   0.00009
   2    18     8         -0.10241  -0.00035  -0.06452   0.00696  -0.05258
   3    18     8          0.10889   0.00030   0.06391  -0.00617   0.12487
   1    19     8          0.00035  -0.10137   0.06944   0.00360  -0.00032
   2    19     8          0.00146  -0.00088   0.00062   0.00000  -0.00134
   3    19     8         -0.00030   0.10774  -0.06885  -0.00320   0.00064
   1    20     6         -0.00118   0.41213   0.27083   0.01819  -0.00003
   2    20     6         -0.00179   0.00692   0.00425  -0.00025   0.00000
   3    20     6          0.00000   0.00000   0.00000   0.00000   0.00133
   1    21     8          0.00083   0.00146   0.00054  -0.00002  -0.00009
   2    21     8         -0.10241  -0.00035  -0.06452   0.00700   0.05256
   3    21     8         -0.10889  -0.00030  -0.06391   0.00627   0.12485
   1    22     8          0.00035  -0.10137  -0.06944  -0.00360  -0.00031
   2    22     8          0.00146  -0.00088  -0.00062   0.00000  -0.00134
   3    22     8          0.00030  -0.10774  -0.06885  -0.00320  -0.00063
   1    23     8          0.00001   0.00031   0.00000   0.00000   0.00003
   2    23     8          0.00044  -0.00002   0.00000   0.00000  -0.00262
   3    23     8          0.00000   0.00000   0.00026  -0.00017   0.00000
   1    24     6         -0.00662  -0.00174  -0.00368  -0.00015   0.00000
   2    24     6          0.41502   0.00118   0.25064  -0.03353   0.00005
   3    24     6          0.00000   0.00000   0.00000  -0.00014  -0.36625
   1    25     6          0.00053  -0.06875  -0.03458  -0.05823   0.00009
   2    25     6          0.00037  -0.01230  -0.00808  -0.00519   0.00001
   3    25     6          0.00000   0.00000   0.00000   0.00000  -0.00166
   1    26     6          0.01235   0.00034   0.00749  -0.00794   0.00001
   2    26     6         -0.06978  -0.00053  -0.03136   0.09156  -0.00014
   3    26     6          0.00000   0.00000   0.00000   0.00003   0.08307
   1    27     1         -0.03344   0.00158  -0.03330  -0.12777   0.00020
   2    27     1         -0.23001   0.00382  -0.17231  -0.32565   0.00050
   3    27     1          0.00000   0.00000   0.00000  -0.00018  -0.44640
   1    28     1         -0.03464  -0.00376  -0.01599   0.11215   0.21732
   2    28     1         -0.31334  -0.00118  -0.22913  -0.29652   0.06795
   3    28     1          0.11209   0.00253   0.08639   0.09822  -0.09504
   1    29     1         -0.03464  -0.00376  -0.01599   0.11198  -0.21766
   2    29     1         -0.31334  -0.00118  -0.22913  -0.29658  -0.06704
   3    29     1         -0.11209  -0.00253  -0.08639  -0.09830  -0.09474
   1    30     1         -0.00383  -0.23347  -0.18641   0.21199  -0.00034
   2    30     1          0.00160   0.03489   0.03586  -0.08268   0.00013
   3    30     1          0.00000   0.00000   0.00000   0.00001   0.01966
   1    31     1          0.00124  -0.31489  -0.24589   0.19154   0.00669
   2    31     1         -0.00384   0.03260   0.01630   0.07336   0.01094
   3    31     1         -0.00261   0.11224   0.09192  -0.06266   0.00214
   1    32     1          0.00124  -0.31489  -0.24589   0.19153  -0.00730
   2    32     1         -0.00384   0.03260   0.01630   0.07335  -0.01117
   3    32     1          0.00261  -0.11224  -0.09192   0.06266   0.00194
   1    33     1         -0.00007  -0.00136   0.00562   0.00063  -0.00024
   2    33     1          0.00016   0.00018   0.00003   0.00025   0.01563
   3    33     1         -0.00013  -0.00315   0.00955   0.00087  -0.00030
   1    34     1         -0.00007  -0.00136  -0.00562  -0.00063  -0.00024
   2    34     1          0.00016   0.00018  -0.00003  -0.00023   0.01563
   3    34     1          0.00013   0.00315   0.00955   0.00087   0.00029
   1    35     1         -0.00007  -0.00136  -0.00562  -0.00063   0.00024
   2    35     1          0.00016   0.00018  -0.00003  -0.00025  -0.01563
   3    35     1         -0.00013  -0.00315  -0.00955  -0.00087   0.00030
   1    36     1         -0.00007  -0.00136   0.00562   0.00063   0.00024
   2    36     1          0.00016   0.00018   0.00003   0.00023  -0.01563
   3    36     1          0.00013   0.00315  -0.00955  -0.00087  -0.00029
                          71        72        73        74        75
                           A         A         A         A         A
       Frequencies ---  1379.1457 1379.9591 1380.7585 1380.8459 1412.9991
    Reduced masses ---     1.3089    1.3114    5.1044    1.3635    2.9758
   Force constants ---     1.4668    1.4714    5.7337    1.5318    3.5006
    IR Intensities ---   108.4891  110.7081    0.0000    0.0000    0.6726
  Raman Activities ---     0.0000    0.0000    0.7232    6.1865    0.0000
    Depol. (Plane) ---     0.7493    0.5380    0.7500    0.1958    0.3014
    Depol. (Unpol) ---     0.8567    0.6996    0.8571    0.3275    0.4633
 Coord Atom Element:
   1     1     6         -0.00012   0.00052   0.00000  -0.00010   0.00000
   2     1     6         -0.03858  -0.00041   0.00000   0.03055   0.00000
   3     1     6          0.00000   0.00000   0.00132   0.00000   0.17038
   1     2     6         -0.00927  -0.00017   0.00000   0.00538   0.00000
   2     2     6          0.10864   0.00023  -0.00001  -0.06096   0.00000
   3     2     6          0.00000   0.00000  -0.00168   0.00000  -0.04971
   1     3     6          0.00042  -0.03935   0.00001   0.04279   0.00000
   2     3     6          0.00053   0.00026   0.00000  -0.00009   0.00000
   3     3     6          0.00000   0.00000   0.36148  -0.00001  -0.17357
   1     4     6         -0.00023   0.10879  -0.00001  -0.09450   0.00000
   2     4     6         -0.00017   0.00961   0.00000  -0.00856   0.00000
   3     4     6          0.00000   0.00000  -0.08279   0.00000   0.05067
   1     5     1         -0.15169   0.00005   0.00001   0.08253   0.00000
   2     5     1         -0.38705   0.00047   0.00002   0.20761   0.00000
   3     5     1          0.00000   0.00000   0.01980   0.00000   0.35478
   1     6     1          0.13191   0.00060  -0.01116  -0.07326  -0.18620
   2     6     1         -0.35415  -0.00077   0.00706   0.18763   0.03299
   3     6     1          0.11814   0.00010   0.00206  -0.06226   0.05632
   1     7     1          0.13190   0.00060   0.01114  -0.07326   0.18620
   2     7     1         -0.35415  -0.00077  -0.00702   0.18763  -0.03299
   3     7     1         -0.11814  -0.00010   0.00207   0.06226   0.05632
   1     8     1         -0.00049  -0.38930   0.00004   0.32906   0.00000
   2     8     1          0.00005   0.15251  -0.00001  -0.13005   0.00000
   3     8     1          0.00000   0.00000   0.45066  -0.00001  -0.36192
   1     9     1          0.00077  -0.35222  -0.06235   0.29494  -0.03360
   2     9     1          0.00060  -0.13491   0.21968   0.11682  -0.18940
   3     9     1         -0.00010   0.11606   0.09440  -0.09658  -0.05734
   1    10     1          0.00077  -0.35222   0.06241   0.29493   0.03360
   2    10     1          0.00060  -0.13491  -0.21965   0.11683   0.18940
   3    10     1          0.00010  -0.11606   0.09442   0.09658  -0.05734
   1    11     8         -0.00003  -0.00031   0.00133   0.00003  -0.00021
   2    11     8          0.00779   0.00011  -0.00031  -0.00682  -0.03237
   3    11     8          0.00745   0.00011  -0.00063  -0.00616  -0.05932
   1    12     8         -0.00003  -0.00031  -0.00133   0.00003   0.00021
   2    12     8          0.00779   0.00011   0.00031  -0.00682   0.03237
   3    12     8         -0.00745  -0.00011  -0.00063   0.00616  -0.05932
   1    13     8         -0.00011   0.00793  -0.05247  -0.00932   0.03299
   2    13     8         -0.00031   0.00002  -0.00009  -0.00003  -0.00020
   3    13     8         -0.00011   0.00766  -0.12292  -0.00843   0.06019
   1    14     8         -0.00011   0.00793  -0.05247   0.00932  -0.03299
   2    14     8         -0.00031   0.00002  -0.00009   0.00003   0.00020
   3    14     8          0.00011  -0.00766   0.12292  -0.00844   0.06019
   1    15     8         -0.00001  -0.00005   0.00152   0.00000   0.00000
   2    15     8         -0.00019   0.00002   0.00006   0.00000   0.00000
   3    15     8          0.00000   0.00000   0.00000  -0.00062   0.00403
   1    16    45          0.00001   0.00019  -0.00326   0.00000   0.00000
   2    16    45          0.00018  -0.00001   0.00002   0.00000   0.00000
   3    16    45          0.00000   0.00000   0.00000  -0.00058  -0.00004
   1    17    45          0.00001   0.00019   0.00326   0.00000   0.00000
   2    17    45          0.00018  -0.00001  -0.00002   0.00000   0.00000
   3    17    45          0.00000   0.00000   0.00000   0.00058  -0.00004
   1    18     8         -0.00003  -0.00031   0.00133  -0.00003   0.00021
   2    18     8          0.00779   0.00011  -0.00031   0.00682   0.03237
   3    18     8         -0.00745  -0.00011   0.00063  -0.00616  -0.05932
   1    19     8         -0.00011   0.00794   0.05246  -0.00932  -0.03299
   2    19     8         -0.00031   0.00002   0.00009  -0.00003   0.00020
   3    19     8          0.00011  -0.00766  -0.12292   0.00844   0.06019
   1    20     6          0.00042  -0.03935   0.00000  -0.04279   0.00000
   2    20     6          0.00053   0.00026   0.00000   0.00009   0.00000
   3    20     6          0.00000   0.00000  -0.36148   0.00001  -0.17357
   1    21     8         -0.00003  -0.00031  -0.00133  -0.00003  -0.00021
   2    21     8          0.00779   0.00011   0.00031   0.00682  -0.03237
   3    21     8          0.00745   0.00011   0.00063   0.00616  -0.05932
   1    22     8         -0.00011   0.00794   0.05247   0.00932   0.03299
   2    22     8         -0.00031   0.00002   0.00009   0.00003  -0.00020
   3    22     8         -0.00011   0.00766   0.12292   0.00843   0.06019
   1    23     8         -0.00001  -0.00005  -0.00152   0.00000   0.00000
   2    23     8         -0.00019   0.00002  -0.00006   0.00000   0.00000
   3    23     8          0.00000   0.00000   0.00000   0.00062   0.00403
   1    24     6         -0.00012   0.00052   0.00000   0.00010   0.00000
   2    24     6         -0.03858  -0.00041   0.00000  -0.03055   0.00000
   3    24     6          0.00000   0.00000  -0.00132   0.00000   0.17038
   1    25     6         -0.00023   0.10879   0.00001   0.09450   0.00000
   2    25     6         -0.00017   0.00961   0.00000   0.00856   0.00000
   3    25     6          0.00000   0.00000   0.08279   0.00000   0.05067
   1    26     6         -0.00927  -0.00017   0.00000  -0.00538   0.00000
   2    26     6          0.10864   0.00023   0.00001   0.06096   0.00000
   3    26     6          0.00000   0.00000   0.00168   0.00000  -0.04971
   1    27     1         -0.15169   0.00005  -0.00001  -0.08253   0.00000
   2    27     1         -0.38705   0.00048  -0.00002  -0.20761   0.00000
   3    27     1          0.00000   0.00000  -0.01980   0.00000   0.35478
   1    28     1          0.13191   0.00060   0.01116   0.07326  -0.18620
   2    28     1         -0.35416  -0.00077  -0.00706  -0.18763   0.03299
   3    28     1          0.11814   0.00010  -0.00206   0.06226   0.05632
   1    29     1          0.13191   0.00060  -0.01114   0.07326   0.18620
   2    29     1         -0.35416  -0.00077   0.00702  -0.18763  -0.03299
   3    29     1         -0.11814  -0.00010  -0.00207  -0.06226   0.05632
   1    30     1         -0.00048  -0.38930  -0.00002  -0.32906   0.00000
   2    30     1          0.00005   0.15251   0.00001   0.13005   0.00000
   3    30     1          0.00000   0.00000  -0.45066   0.00001  -0.36192
   1    31     1          0.00077  -0.35222   0.06236  -0.29494  -0.03360
   2    31     1          0.00060  -0.13491  -0.21967  -0.11682  -0.18940
   3    31     1         -0.00010   0.11606  -0.09440   0.09658  -0.05734
   1    32     1          0.00077  -0.35222  -0.06240  -0.29494   0.03360
   2    32     1          0.00060  -0.13491   0.21966  -0.11683   0.18940
   3    32     1          0.00010  -0.11606  -0.09442  -0.09658  -0.05734
   1    33     1          0.00004   0.00066   0.00916  -0.00317  -0.01714
   2    33     1          0.00134  -0.00023   0.00066  -0.00009   0.00057
   3    33     1          0.00009   0.00129   0.01749  -0.00512  -0.02599
   1    34     1          0.00004   0.00066   0.00916   0.00317   0.01714
   2    34     1          0.00134  -0.00023   0.00066   0.00009  -0.00057
   3    34     1         -0.00009  -0.00129  -0.01749  -0.00511  -0.02599
   1    35     1          0.00004   0.00066  -0.00916   0.00317  -0.01714
   2    35     1          0.00134  -0.00023  -0.00066   0.00009   0.00057
   3    35     1          0.00009   0.00129  -0.01749   0.00512  -0.02599
   1    36     1          0.00004   0.00066  -0.00916  -0.00317   0.01714
   2    36     1          0.00134  -0.00023  -0.00066  -0.00009  -0.00057
   3    36     1         -0.00009  -0.00129   0.01749   0.00511  -0.02599
                          76        77        78        79        80
                           A         A         A         A         A
       Frequencies ---  1439.2318 1458.0613 1458.1670 1458.7037 1459.0149
    Reduced masses ---     1.3817    1.0605    1.0600    1.0604    1.0630
   Force constants ---     1.6862    1.3283    1.3279    1.3293    1.3333
    IR Intensities ---   361.4800    0.0000   30.6624   31.4064    0.0000
  Raman Activities ---     0.0000   39.3078    0.0000    0.0000    7.2765
    Depol. (Plane) ---     0.1538    0.7475    0.7218    0.7494    0.5803
    Depol. (Unpol) ---     0.2665    0.8555    0.8384    0.8568    0.7344
 Coord Atom Element:
   1     1     6          0.00000  -0.01299   0.01480  -0.00008   0.00704
   2     1     6          0.00000   0.01650  -0.01822   0.00060  -0.01027
   3     1     6          0.06957   0.00000   0.00000   0.00000   0.00000
   1     2     6          0.00000  -0.03448   0.03914   0.00011   0.01856
   2     2     6          0.00000  -0.01289   0.01433  -0.00005   0.00701
   3     2     6         -0.03796   0.00000   0.00000   0.00000   0.00000
   1     3     6          0.00000  -0.00816  -0.00059  -0.01838  -0.01778
   2     3     6          0.00000  -0.00696  -0.00008  -0.01479  -0.01303
   3     3     6          0.06778   0.00000   0.00000   0.00000   0.00000
   1     4     6          0.00000   0.00722   0.00005   0.01502   0.01354
   2     4     6          0.00000  -0.01854   0.00011  -0.03903  -0.03438
   3     4     6         -0.03710   0.00000   0.00000   0.00000   0.00000
   1     5     1          0.00000  -0.07908   0.09017  -0.00021   0.04308
   2     5     1          0.00000  -0.21138   0.24105  -0.00082   0.11562
   3     5     1          0.37000   0.00000   0.00000   0.00000   0.00000
   1     6     1         -0.20489   0.30235  -0.34366  -0.00041  -0.16309
   2     6     1          0.10323   0.13601  -0.15389  -0.00044  -0.07165
   3     6     1          0.04383  -0.23960   0.27189   0.00036   0.12856
   1     7     1          0.20489   0.30235  -0.34366  -0.00041  -0.16309
   2     7     1         -0.10323   0.13601  -0.15389  -0.00044  -0.07165
   3     7     1          0.04383   0.23960  -0.27189  -0.00036  -0.12856
   1     8     1          0.00000   0.11188   0.00083   0.23885   0.21106
   2     8     1          0.00000  -0.04192  -0.00021  -0.08927  -0.07874
   3     8     1          0.36216   0.00000   0.00000   0.00000   0.00000
   1     9     1          0.10106  -0.07539   0.00043  -0.15651  -0.13699
   2     9     1          0.20010   0.16225  -0.00041   0.34255   0.30172
   3     9     1          0.04273   0.12984  -0.00036   0.27290   0.24017
   1    10     1         -0.10106  -0.07539   0.00043  -0.15650  -0.13699
   2    10     1         -0.20010   0.16225  -0.00041   0.34255   0.30172
   3    10     1          0.04273  -0.12984   0.00036  -0.27290  -0.24017
   1    11     8         -0.00034   0.00117  -0.00127   0.00001  -0.00066
   2    11     8         -0.01449  -0.00340   0.00350  -0.00021   0.00222
   3    11     8         -0.02605  -0.00359   0.00405  -0.00017   0.00224
   1    12     8          0.00034   0.00117  -0.00127   0.00001  -0.00066
   2    12     8          0.01449  -0.00340   0.00350  -0.00021   0.00222
   3    12     8         -0.02605   0.00359  -0.00405   0.00017  -0.00224
   1    13     8         -0.01411   0.00161   0.00020   0.00350   0.00371
   2    13     8          0.00034   0.00060   0.00001   0.00126   0.00119
   3    13     8         -0.02528   0.00177   0.00017   0.00409   0.00387
   1    14     8          0.01411  -0.00161   0.00020   0.00350  -0.00371
   2    14     8         -0.00034  -0.00060   0.00001   0.00126  -0.00119
   3    14     8         -0.02528   0.00177  -0.00017  -0.00409   0.00387
   1    15     8          0.00000   0.00000   0.00001   0.00001   0.00000
   2    15     8          0.00000   0.00000  -0.00010  -0.00003   0.00000
   3    15     8         -0.00575   0.00054   0.00000   0.00000   0.00055
   1    16    45          0.00000   0.00000  -0.00006   0.00003   0.00000
   2    16    45          0.00000   0.00000   0.00002   0.00006   0.00000
   3    16    45          0.00009  -0.00005   0.00000   0.00000   0.00016
   1    17    45          0.00000   0.00000  -0.00006   0.00003   0.00000
   2    17    45          0.00000   0.00000   0.00002   0.00006   0.00000
   3    17    45          0.00009   0.00005   0.00000   0.00000  -0.00016
   1    18     8          0.00034  -0.00117  -0.00127   0.00001   0.00066
   2    18     8          0.01449   0.00340   0.00350  -0.00021  -0.00222
   3    18     8         -0.02605  -0.00359  -0.00405   0.00017   0.00224
   1    19     8          0.01411   0.00161   0.00020   0.00350   0.00371
   2    19     8         -0.00034   0.00060   0.00001   0.00126   0.00119
   3    19     8         -0.02528  -0.00177  -0.00017  -0.00409  -0.00387
   1    20     6          0.00000   0.00816  -0.00059  -0.01838   0.01778
   2    20     6          0.00000   0.00696  -0.00008  -0.01479   0.01303
   3    20     6          0.06778   0.00000   0.00000   0.00000   0.00000
   1    21     8         -0.00034  -0.00117  -0.00127   0.00001   0.00066
   2    21     8         -0.01449   0.00340   0.00350  -0.00021  -0.00222
   3    21     8         -0.02605   0.00359   0.00405  -0.00017  -0.00224
   1    22     8         -0.01411  -0.00161   0.00020   0.00350  -0.00371
   2    22     8          0.00034  -0.00060   0.00001   0.00126  -0.00119
   3    22     8         -0.02528  -0.00177   0.00017   0.00409  -0.00387
   1    23     8          0.00000   0.00000   0.00001   0.00001   0.00000
   2    23     8          0.00000   0.00000  -0.00010  -0.00003   0.00000
   3    23     8         -0.00575  -0.00054   0.00000   0.00000  -0.00055
   1    24     6          0.00000   0.01299   0.01480  -0.00008  -0.00704
   2    24     6          0.00000  -0.01650  -0.01822   0.00060   0.01027
   3    24     6          0.06957   0.00000   0.00000   0.00000   0.00000
   1    25     6          0.00000  -0.00722   0.00005   0.01502  -0.01354
   2    25     6          0.00000   0.01854   0.00011  -0.03903   0.03438
   3    25     6         -0.03710   0.00000   0.00000   0.00000   0.00000
   1    26     6          0.00000   0.03448   0.03914   0.00011  -0.01856
   2    26     6          0.00000   0.01289   0.01433  -0.00005  -0.00701
   3    26     6         -0.03796   0.00000   0.00000   0.00000   0.00000
   1    27     1          0.00000   0.07908   0.09017  -0.00021  -0.04308
   2    27     1          0.00000   0.21138   0.24105  -0.00082  -0.11562
   3    27     1          0.37000   0.00000   0.00000   0.00000   0.00000
   1    28     1         -0.20489  -0.30235  -0.34366  -0.00041   0.16309
   2    28     1          0.10323  -0.13601  -0.15389  -0.00044   0.07165
   3    28     1          0.04383   0.23960   0.27189   0.00036  -0.12856
   1    29     1          0.20489  -0.30235  -0.34365  -0.00041   0.16309
   2    29     1         -0.10323  -0.13601  -0.15389  -0.00044   0.07165
   3    29     1          0.04383  -0.23960  -0.27189  -0.00036   0.12856
   1    30     1          0.00000  -0.11188   0.00083   0.23885  -0.21106
   2    30     1          0.00000   0.04192  -0.00021  -0.08927   0.07874
   3    30     1          0.36216   0.00000   0.00000   0.00000   0.00000
   1    31     1          0.10106   0.07539   0.00043  -0.15650   0.13699
   2    31     1          0.20010  -0.16225  -0.00041   0.34255  -0.30172
   3    31     1          0.04273  -0.12984  -0.00036   0.27290  -0.24017
   1    32     1         -0.10106   0.07539   0.00043  -0.15651   0.13699
   2    32     1         -0.20010  -0.16225  -0.00041   0.34255  -0.30172
   3    32     1          0.04273   0.12984   0.00036  -0.27290   0.24017
   1    33     1          0.02061   0.00251  -0.00007   0.00030   0.00271
   2    33     1          0.00010  -0.00019   0.00077   0.00028  -0.00005
   3    33     1          0.03224   0.00387  -0.00015   0.00062   0.00429
   1    34     1         -0.02061  -0.00251  -0.00007   0.00030  -0.00271
   2    34     1         -0.00010   0.00019   0.00077   0.00028   0.00005
   3    34     1          0.03224   0.00387   0.00015  -0.00062   0.00429
   1    35     1          0.02061  -0.00251  -0.00007   0.00030  -0.00271
   2    35     1          0.00010   0.00019   0.00077   0.00028   0.00005
   3    35     1          0.03224  -0.00387  -0.00015   0.00062  -0.00429
   1    36     1         -0.02061   0.00251  -0.00007   0.00030   0.00271
   2    36     1         -0.00010  -0.00019   0.00077   0.00028  -0.00005
   3    36     1          0.03224  -0.00387   0.00015  -0.00062  -0.00429
                          81        82        83        84        85
                           A         A         A         A         A
       Frequencies ---  1465.0908 1465.3087 1474.0172 1501.2086 1528.8582
    Reduced masses ---     1.1311    1.1363    1.3579    2.2530    1.1006
   Force constants ---     1.4304    1.4375    1.7383    2.9915    1.5157
    IR Intensities ---     0.0000    0.0000    0.6215  338.9278    0.0000
  Raman Activities ---    34.2029   33.3019    0.0000    0.0000   50.4712
    Depol. (Plane) ---     0.7500    0.7500    0.7414    0.1879    0.2870
    Depol. (Unpol) ---     0.8571    0.8571    0.8515    0.3164    0.4459
 Coord Atom Element:
   1     1     6          0.00000   0.00000   0.00000   0.00000   0.00003
   2     1     6          0.00000   0.00000   0.00000   0.00000   0.00053
   3     1     6         -0.06159  -0.00030   0.07500   0.14856   0.00000
   1     2     6          0.00000   0.00000   0.00000   0.00000   0.00020
   2     2     6          0.00000   0.00000   0.00000   0.00000  -0.00030
   3     2     6         -0.03068  -0.00197   0.01626   0.00085   0.00000
   1     3     6          0.00000   0.00000   0.00000   0.00000   0.00261
   2     3     6          0.00000   0.00000   0.00000   0.00000   0.00022
   3     3     6          0.00031  -0.06321  -0.07825   0.13644   0.00000
   1     4     6          0.00000   0.00000   0.00000   0.00000  -0.00124
   2     4     6          0.00000   0.00000   0.00000   0.00000   0.00040
   3     4     6          0.00197  -0.03042  -0.01681   0.00082   0.00000
   1     5     1          0.00000   0.00000   0.00000   0.00000   0.00077
   2     5     1          0.00000   0.00000   0.00000   0.00000   0.00190
   3     5     1          0.48130   0.02569  -0.32038  -0.23665   0.00000
   1     6     1         -0.28095  -0.01457   0.19013   0.14871  -0.00172
   2     6     1          0.22484   0.01015  -0.16893  -0.17603   0.00042
   3     6     1          0.03676   0.00238  -0.02023  -0.00321   0.00073
   1     7     1          0.28095   0.01457  -0.19013  -0.14871  -0.00173
   2     7     1         -0.22484  -0.01015   0.16893   0.17603   0.00043
   3     7     1          0.03676   0.00238  -0.02023  -0.00321  -0.00073
   1     8     1          0.00000   0.00000   0.00000   0.00000  -0.00070
   2     8     1          0.00000   0.00000   0.00000   0.00000   0.00004
   3     8     1         -0.02571   0.48115   0.33271  -0.21852   0.00000
   1     9     1         -0.01015   0.22538   0.17536  -0.16181   0.00412
   2     9     1         -0.01456   0.28048   0.19713  -0.13707  -0.00333
   3     9     1         -0.00237   0.03637   0.02085  -0.00310  -0.00421
   1    10     1          0.01015  -0.22538  -0.17536   0.16181   0.00413
   2    10     1          0.01456  -0.28048  -0.19713   0.13706  -0.00333
   3    10     1         -0.00237   0.03637   0.02085  -0.00310   0.00421
   1    11     8         -0.00070  -0.00019   0.00060   0.00053   0.00000
   2    11     8          0.00547  -0.00012  -0.01125  -0.02449  -0.00008
   3    11     8          0.01692  -0.00010  -0.02259  -0.04789  -0.00004
   1    12     8          0.00070   0.00019  -0.00060  -0.00053   0.00000
   2    12     8         -0.00547   0.00012   0.01125   0.02449  -0.00007
   3    12     8          0.01692  -0.00010  -0.02259  -0.04789   0.00004
   1    13     8          0.00012   0.00576   0.01173  -0.02234  -0.00073
   2    13     8         -0.00019   0.00071   0.00063  -0.00050  -0.00002
   3    13     8          0.00010   0.01739   0.02345  -0.04355  -0.00062
   1    14     8          0.00012   0.00576  -0.01173   0.02234   0.00073
   2    14     8         -0.00019   0.00071  -0.00063   0.00050   0.00002
   3    14     8         -0.00010  -0.01739   0.02345  -0.04355  -0.00062
   1    15     8         -0.00003  -0.00022   0.00000   0.00000   0.00000
   2    15     8         -0.00032   0.00007   0.00000   0.00000   0.00000
   3    15     8          0.00000   0.00000   0.00324  -0.03346   0.05556
   1    16    45         -0.00004   0.00063   0.00000   0.00000   0.00000
   2    16    45          0.00064   0.00004   0.00000   0.00000   0.00000
   3    16    45          0.00000   0.00000  -0.00002   0.00026  -0.00042
   1    17    45          0.00004  -0.00063   0.00000   0.00000   0.00000
   2    17    45         -0.00064  -0.00004   0.00000   0.00000   0.00000
   3    17    45          0.00000   0.00000  -0.00002   0.00026   0.00042
   1    18     8         -0.00070  -0.00019  -0.00060  -0.00053   0.00000
   2    18     8          0.00547  -0.00012   0.01125   0.02449   0.00008
   3    18     8         -0.01692   0.00010  -0.02259  -0.04789  -0.00004
   1    19     8         -0.00012  -0.00576  -0.01173   0.02234  -0.00073
   2    19     8          0.00019  -0.00071  -0.00063   0.00050  -0.00002
   3    19     8          0.00010   0.01739   0.02345  -0.04355   0.00062
   1    20     6          0.00000   0.00000   0.00000   0.00000  -0.00261
   2    20     6          0.00000   0.00000   0.00000   0.00000  -0.00022
   3    20     6         -0.00031   0.06321  -0.07825   0.13644   0.00000
   1    21     8          0.00070   0.00019   0.00060   0.00053   0.00000
   2    21     8         -0.00547   0.00012  -0.01125  -0.02449   0.00007
   3    21     8         -0.01692   0.00010  -0.02259  -0.04789   0.00004
   1    22     8         -0.00012  -0.00576   0.01173  -0.02234   0.00073
   2    22     8          0.00019  -0.00071   0.00063  -0.00050   0.00002
   3    22     8         -0.00010  -0.01739   0.02345  -0.04355   0.00062
   1    23     8          0.00003   0.00022   0.00000   0.00000   0.00000
   2    23     8          0.00032  -0.00007   0.00000   0.00000   0.00000
   3    23     8          0.00000   0.00000   0.00324  -0.03346  -0.05555
   1    24     6          0.00000   0.00000   0.00000   0.00000  -0.00003
   2    24     6          0.00000   0.00000   0.00000   0.00000  -0.00053
   3    24     6          0.06159   0.00030   0.07500   0.14856   0.00000
   1    25     6          0.00000   0.00000   0.00000   0.00000   0.00124
   2    25     6          0.00000   0.00000   0.00000   0.00000  -0.00040
   3    25     6         -0.00197   0.03042  -0.01681   0.00082   0.00000
   1    26     6          0.00000   0.00000   0.00000   0.00000  -0.00020
   2    26     6          0.00000   0.00000   0.00000   0.00000   0.00030
   3    26     6          0.03068   0.00197   0.01626   0.00085   0.00000
   1    27     1          0.00000   0.00000   0.00000   0.00000  -0.00077
   2    27     1          0.00000   0.00000   0.00000   0.00000  -0.00190
   3    27     1         -0.48130  -0.02569  -0.32038  -0.23665   0.00000
   1    28     1          0.28095   0.01457   0.19013   0.14871   0.00173
   2    28     1         -0.22484  -0.01015  -0.16893  -0.17603  -0.00043
   3    28     1         -0.03676  -0.00238  -0.02023  -0.00321  -0.00073
   1    29     1         -0.28095  -0.01457  -0.19013  -0.14871   0.00172
   2    29     1          0.22484   0.01015   0.16893   0.17603  -0.00042
   3    29     1         -0.03676  -0.00238  -0.02023  -0.00321   0.00073
   1    30     1          0.00000   0.00000   0.00000   0.00000   0.00070
   2    30     1          0.00000   0.00000   0.00000   0.00000  -0.00004
   3    30     1          0.02571  -0.48115   0.33271  -0.21852   0.00000
   1    31     1          0.01015  -0.22538   0.17536  -0.16181  -0.00413
   2    31     1          0.01456  -0.28048   0.19713  -0.13706   0.00333
   3    31     1          0.00237  -0.03637   0.02085  -0.00310   0.00421
   1    32     1         -0.01015   0.22538  -0.17536   0.16181  -0.00412
   2    32     1         -0.01456   0.28048  -0.19713   0.13707   0.00333
   3    32     1          0.00237  -0.03637   0.02085  -0.00310  -0.00421
   1    33     1         -0.00017  -0.00123  -0.01435   0.14400   0.26237
   2    33     1         -0.00179   0.00077  -0.00085   0.00083   0.00153
   3    33     1         -0.00039  -0.00229  -0.02252   0.23044   0.42370
   1    34     1         -0.00017  -0.00123   0.01435  -0.14400  -0.26237
   2    34     1         -0.00179   0.00077   0.00085  -0.00083  -0.00153
   3    34     1          0.00039   0.00229  -0.02252   0.23044   0.42370
   1    35     1          0.00017   0.00123  -0.01435   0.14400  -0.26241
   2    35     1          0.00179  -0.00077  -0.00085   0.00083  -0.00153
   3    35     1          0.00039   0.00229  -0.02252   0.23044  -0.42377
   1    36     1          0.00017   0.00123   0.01435  -0.14400   0.26241
   2    36     1          0.00179  -0.00077   0.00085  -0.00083   0.00153
   3    36     1         -0.00039  -0.00229  -0.02252   0.23044  -0.42377
                          86        87        88        89        90
                           A         A         A         A         A
       Frequencies ---  1530.5915 2988.6052 2988.6850 2988.7888 2988.9130
    Reduced masses ---     1.2472    1.0374    1.0374    1.0374    1.0374
   Force constants ---     1.7215    5.4591    5.4594    5.4601    5.4604
    IR Intensities ---     9.9794   24.4227    0.0000   23.6429    0.0000
  Raman Activities ---     0.0000    0.0000  220.7690    0.0000  707.1388
    Depol. (Plane) ---     0.2846    0.1248    0.1523    0.0248    0.0329
    Depol. (Unpol) ---     0.4431    0.2220    0.2643    0.0484    0.0637
 Coord Atom Element:
   1     1     6          0.00000  -0.00009   0.00009  -0.00001  -0.00004
   2     1     6          0.00000  -0.00159   0.00149   0.00000  -0.00049
   3     1     6          0.04290   0.00000   0.00000   0.00000   0.00000
   1     2     6          0.00000  -0.01574   0.01487  -0.00004  -0.00518
   2     2     6          0.00000   0.03308  -0.03124   0.00011   0.01082
   3     2     6         -0.00194   0.00000   0.00000   0.00000   0.00000
   1     3     6          0.00000   0.00000  -0.00054   0.00158  -0.00148
   2     3     6          0.00000   0.00001   0.00003  -0.00009   0.00009
   3     3     6          0.05570   0.00000   0.00000   0.00000   0.00000
   1     4     6          0.00000   0.00011   0.01086  -0.03310   0.03125
   2     4     6          0.00000   0.00004   0.00516  -0.01578   0.01493
   3     4     6         -0.00264   0.00000   0.00000   0.00000   0.00000
   1     5     1          0.00000   0.50041  -0.47281   0.00153   0.16422
   2     5     1          0.00000  -0.14741   0.13932  -0.00044  -0.04843
   3     5     1         -0.04029   0.00000   0.00000   0.00000   0.00000
   1     6     1          0.02685  -0.15589   0.14725  -0.00053  -0.05103
   2     6     1         -0.03920  -0.11295   0.10669  -0.00038  -0.03699
   3     6     1          0.00161  -0.27605   0.26074  -0.00093  -0.09037
   1     7     1         -0.02685  -0.15589   0.14725  -0.00053  -0.05103
   2     7     1          0.03920  -0.11295   0.10669  -0.00038  -0.03699
   3     7     1          0.00161   0.27605  -0.26074   0.00093   0.09037
   1     8     1          0.00000  -0.00044  -0.04826   0.14738  -0.13934
   2     8     1          0.00000  -0.00153  -0.16403   0.50074  -0.47324
   3     8     1         -0.04938   0.00000   0.00000   0.00000   0.00000
   1     9     1         -0.04959  -0.00037  -0.03709   0.11309  -0.10680
   2     9     1         -0.03314   0.00053   0.05111  -0.15577   0.14710
   3     9     1          0.00259  -0.00092  -0.09047   0.27575  -0.26039
   1    10     1          0.04959  -0.00037  -0.03709   0.11309  -0.10680
   2    10     1          0.03314   0.00053   0.05111  -0.15577   0.14710
   3    10     1          0.00258   0.00092   0.09047  -0.27575   0.26039
   1    11     8          0.00012   0.00002  -0.00001   0.00001   0.00000
   2    11     8         -0.00719  -0.00008   0.00010   0.00000  -0.00004
   3    11     8         -0.01420  -0.00014   0.00015   0.00000  -0.00005
   1    12     8         -0.00012   0.00002  -0.00001   0.00001   0.00000
   2    12     8          0.00719  -0.00008   0.00010   0.00000  -0.00004
   3    12     8         -0.01420   0.00014  -0.00015   0.00000   0.00005
   1    13     8         -0.00959   0.00000  -0.00003   0.00008  -0.00010
   2    13     8         -0.00015  -0.00001  -0.00001   0.00002  -0.00001
   3    13     8         -0.01891   0.00000  -0.00005   0.00015  -0.00015
   1    14     8          0.00959   0.00000   0.00003   0.00008   0.00010
   2    14     8          0.00015  -0.00001   0.00001   0.00002   0.00001
   3    14     8         -0.01891   0.00000  -0.00005  -0.00015  -0.00015
   1    15     8          0.00000   0.00000   0.00000  -0.00001   0.00000
   2    15     8          0.00000   0.00000   0.00000   0.00000   0.00000
   3    15     8          0.05427   0.00000  -0.00001   0.00000   0.00002
   1    16    45          0.00000  -0.00001   0.00000  -0.00001   0.00000
   2    16    45          0.00000   0.00001   0.00000  -0.00001   0.00000
   3    16    45         -0.00019   0.00000   0.00000   0.00000   0.00001
   1    17    45          0.00000  -0.00001   0.00000  -0.00001   0.00000
   2    17    45          0.00000   0.00001   0.00000  -0.00001   0.00000
   3    17    45         -0.00019   0.00000   0.00000   0.00000  -0.00001
   1    18     8         -0.00012   0.00002   0.00001   0.00001   0.00000
   2    18     8          0.00719  -0.00008  -0.00010   0.00000   0.00004
   3    18     8         -0.01420   0.00014   0.00015   0.00000  -0.00005
   1    19     8          0.00959   0.00000  -0.00003   0.00008  -0.00010
   2    19     8          0.00015  -0.00001  -0.00001   0.00002  -0.00001
   3    19     8         -0.01891   0.00000   0.00005  -0.00015   0.00015
   1    20     6          0.00000   0.00000   0.00054   0.00158   0.00148
   2    20     6          0.00000   0.00001  -0.00003  -0.00009  -0.00009
   3    20     6          0.05570   0.00000   0.00000   0.00000   0.00000
   1    21     8          0.00012   0.00002   0.00001   0.00001   0.00000
   2    21     8         -0.00719  -0.00008  -0.00010   0.00000   0.00004
   3    21     8         -0.01420  -0.00014  -0.00015   0.00000   0.00005
   1    22     8         -0.00959   0.00000   0.00003   0.00008   0.00010
   2    22     8         -0.00015  -0.00001   0.00001   0.00002   0.00001
   3    22     8         -0.01891   0.00000   0.00005   0.00015   0.00015
   1    23     8          0.00000   0.00000   0.00000  -0.00001   0.00000
   2    23     8          0.00000   0.00000   0.00000   0.00000   0.00000
   3    23     8          0.05428   0.00000   0.00001   0.00000  -0.00002
   1    24     6          0.00000  -0.00009  -0.00009  -0.00001   0.00004
   2    24     6          0.00000  -0.00159  -0.00149   0.00000   0.00049
   3    24     6          0.04290   0.00000   0.00000   0.00000   0.00000
   1    25     6          0.00000   0.00011  -0.01086  -0.03310  -0.03125
   2    25     6          0.00000   0.00004  -0.00516  -0.01578  -0.01493
   3    25     6         -0.00264   0.00000   0.00000   0.00000   0.00000
   1    26     6          0.00000  -0.01573  -0.01487  -0.00004   0.00518
   2    26     6          0.00000   0.03307   0.03124   0.00011  -0.01082
   3    26     6         -0.00194   0.00000   0.00000   0.00000   0.00000
   1    27     1          0.00000   0.50039   0.47283   0.00153  -0.16422
   2    27     1          0.00000  -0.14741  -0.13933  -0.00044   0.04843
   3    27     1         -0.04029   0.00000   0.00000   0.00000   0.00000
   1    28     1          0.02685  -0.15589  -0.14726  -0.00053   0.05104
   2    28     1         -0.03920  -0.11295  -0.10669  -0.00037   0.03699
   3    28     1          0.00161  -0.27604  -0.26075  -0.00093   0.09037
   1    29     1         -0.02685  -0.15589  -0.14726  -0.00053   0.05104
   2    29     1          0.03920  -0.11295  -0.10669  -0.00037   0.03699
   3    29     1          0.00161   0.27604   0.26075   0.00093  -0.09037
   1    30     1          0.00000  -0.00044   0.04826   0.14738   0.13934
   2    30     1          0.00000  -0.00154   0.16404   0.50075   0.47323
   3    30     1         -0.04938   0.00000   0.00000   0.00000   0.00000
   1    31     1         -0.04959  -0.00037   0.03709   0.11309   0.10680
   2    31     1         -0.03314   0.00053  -0.05111  -0.15577  -0.14710
   3    31     1          0.00258  -0.00093   0.09047   0.27575   0.26039
   1    32     1          0.04959  -0.00037   0.03709   0.11309   0.10680
   2    32     1          0.03314   0.00053  -0.05111  -0.15577  -0.14710
   3    32     1          0.00259   0.00093  -0.09047  -0.27575  -0.26039
   1    33     1         -0.25652   0.00000   0.00001   0.00003  -0.00002
   2    33     1         -0.00147   0.00007  -0.00004  -0.00005  -0.00002
   3    33     1         -0.41441  -0.00003  -0.00001  -0.00003   0.00002
   1    34     1          0.25652   0.00000  -0.00001   0.00003   0.00002
   2    34     1          0.00147   0.00007   0.00004  -0.00005   0.00002
   3    34     1         -0.41441   0.00003  -0.00001   0.00003   0.00002
   1    35     1         -0.25647   0.00000  -0.00001   0.00003   0.00002
   2    35     1         -0.00147   0.00007   0.00004  -0.00005   0.00002
   3    35     1         -0.41433  -0.00003   0.00001  -0.00003  -0.00002
   1    36     1          0.25647   0.00000   0.00001   0.00003  -0.00002
   2    36     1          0.00147   0.00007  -0.00004  -0.00005  -0.00002
   3    36     1         -0.41433   0.00003   0.00001   0.00003  -0.00002
                          91        92        93        94        95
                           A         A         A         A         A
       Frequencies ---  3080.4626 3080.4843 3080.7123 3080.8022 3117.9285
    Reduced masses ---     1.0944    1.0943    1.0944    1.0944    1.1023
   Force constants ---     6.1184    6.1184    6.1196    6.1199    6.3138
    IR Intensities ---     0.0000   25.3160   25.0742    0.0000    0.0000
  Raman Activities ---    80.8112    0.0000    0.0000  206.8114  122.7992
    Depol. (Plane) ---     0.4849    0.4809    0.5817    0.7326    0.7500
    Depol. (Unpol) ---     0.6531    0.6495    0.7355    0.8457    0.8571
 Coord Atom Element:
   1     1     6         -0.00082  -0.00091   0.00001  -0.00037   0.00000
   2     1     6          0.00085   0.00094  -0.00001   0.00040   0.00000
   3     1     6          0.00000   0.00000   0.00000   0.00000   0.00000
   1     2     6         -0.05658  -0.06171   0.00013  -0.02463   0.00000
   2     2     6         -0.01028  -0.01120   0.00002  -0.00447   0.00000
   3     2     6          0.00000   0.00000   0.00000   0.00000  -0.00003
   1     3     6          0.00036  -0.00001  -0.00096  -0.00090   0.00000
   2     3     6          0.00034  -0.00001  -0.00090  -0.00083   0.00000
   3     3     6          0.00000   0.00000   0.00000   0.00000  -0.00207
   1     4     6         -0.00451   0.00002   0.01128   0.01035   0.00000
   2     4     6          0.02463  -0.00013  -0.06171  -0.05659   0.00000
   3     4     6          0.00000   0.00000   0.00000   0.00000  -0.06552
   1     5     1          0.40669   0.44378  -0.00092   0.17720   0.00000
   2     5     1         -0.13240  -0.14455   0.00041  -0.05778   0.00000
   3     5     1          0.00000   0.00000   0.00000   0.00000   0.00004
   1     6     1          0.13850   0.15097  -0.00032   0.06018   0.00006
   2     6     1          0.12235   0.13340  -0.00020   0.05322   0.00008
   3     6     1          0.28793   0.31391  -0.00056   0.12522   0.00015
   1     7     1          0.13851   0.15097  -0.00032   0.06018  -0.00006
   2     7     1          0.12235   0.13340  -0.00020   0.05322  -0.00008
   3     7     1         -0.28793  -0.31391   0.00056  -0.12522   0.00015
   1     8     1         -0.05743   0.00041   0.14431   0.13230   0.00000
   2     8     1         -0.17677   0.00092   0.44347   0.40656   0.00000
   3     8     1          0.00000   0.00000   0.00000   0.00000  -0.01905
   1     9     1          0.05338  -0.00020  -0.13368  -0.12258   0.17998
   2     9     1         -0.06042   0.00031   0.15116   0.13861  -0.22632
   3     9     1          0.12540  -0.00056  -0.31395  -0.28791   0.40503
   1    10     1          0.05338  -0.00020  -0.13368  -0.12258  -0.17998
   2    10     1         -0.06042   0.00031   0.15116   0.13861   0.22632
   3    10     1         -0.12540   0.00056   0.31395   0.28791   0.40503
   1    11     8         -0.00001  -0.00002   0.00000   0.00001  -0.00001
   2    11     8         -0.00001  -0.00002   0.00001  -0.00002   0.00000
   3    11     8         -0.00007  -0.00008   0.00000  -0.00004   0.00000
   1    12     8         -0.00001  -0.00002   0.00000   0.00001   0.00001
   2    12     8         -0.00001  -0.00002   0.00001  -0.00002   0.00000
   3    12     8          0.00007   0.00008   0.00000   0.00004   0.00000
   1    13     8          0.00000   0.00001   0.00002   0.00002   0.00005
   2    13     8          0.00001   0.00000  -0.00002  -0.00001   0.00008
   3    13     8         -0.00003   0.00000   0.00008   0.00008   0.00041
   1    14     8          0.00000   0.00001   0.00002  -0.00002   0.00005
   2    14     8         -0.00001   0.00000  -0.00002   0.00001   0.00008
   3    14     8         -0.00003   0.00000  -0.00008   0.00008  -0.00041
   1    15     8          0.00000   0.00000   0.00001   0.00000   0.00001
   2    15     8          0.00000  -0.00001   0.00001   0.00000   0.00000
   3    15     8          0.00000   0.00000   0.00000   0.00000   0.00000
   1    16    45          0.00000   0.00000  -0.00001   0.00000   0.00002
   2    16    45          0.00000   0.00001   0.00000   0.00000   0.00000
   3    16    45          0.00000   0.00000   0.00000   0.00000   0.00000
   1    17    45          0.00000   0.00000  -0.00001   0.00000  -0.00002
   2    17    45          0.00000   0.00001   0.00000   0.00000   0.00000
   3    17    45          0.00000   0.00000   0.00000   0.00000   0.00000
   1    18     8          0.00001  -0.00002   0.00000  -0.00001  -0.00001
   2    18     8          0.00001  -0.00002   0.00001   0.00002   0.00000
   3    18     8         -0.00007   0.00008   0.00000  -0.00004   0.00000
   1    19     8          0.00000   0.00001   0.00002   0.00002  -0.00005
   2    19     8          0.00001   0.00000  -0.00002  -0.00001  -0.00008
   3    19     8          0.00003   0.00000  -0.00008  -0.00008   0.00041
   1    20     6         -0.00036  -0.00001  -0.00096   0.00090   0.00000
   2    20     6         -0.00034  -0.00001  -0.00090   0.00083   0.00000
   3    20     6          0.00000   0.00000   0.00000   0.00000   0.00207
   1    21     8          0.00001  -0.00002   0.00000  -0.00001   0.00001
   2    21     8          0.00001  -0.00002   0.00001   0.00002   0.00000
   3    21     8          0.00007  -0.00008   0.00000   0.00004   0.00000
   1    22     8          0.00000   0.00001   0.00002  -0.00002  -0.00005
   2    22     8         -0.00001   0.00000  -0.00002   0.00001  -0.00008
   3    22     8          0.00003   0.00000   0.00008  -0.00008  -0.00041
   1    23     8          0.00000   0.00000   0.00001   0.00000  -0.00001
   2    23     8          0.00000  -0.00001   0.00001   0.00000   0.00000
   3    23     8          0.00000   0.00000   0.00000   0.00000   0.00000
   1    24     6          0.00082  -0.00091   0.00001   0.00037   0.00000
   2    24     6         -0.00085   0.00094  -0.00001  -0.00040   0.00000
   3    24     6          0.00000   0.00000   0.00000   0.00000   0.00000
   1    25     6          0.00451   0.00002   0.01128  -0.01035   0.00000
   2    25     6         -0.02463  -0.00013  -0.06171   0.05659   0.00000
   3    25     6          0.00000   0.00000   0.00000   0.00000   0.06552
   1    26     6          0.05658  -0.06171   0.00013   0.02463   0.00000
   2    26     6          0.01028  -0.01120   0.00002   0.00447   0.00000
   3    26     6          0.00000   0.00000   0.00000   0.00000   0.00003
   1    27     1         -0.40671   0.44376  -0.00092  -0.17720   0.00000
   2    27     1          0.13241  -0.14454   0.00041   0.05778   0.00000
   3    27     1          0.00000   0.00000   0.00000   0.00000  -0.00004
   1    28     1         -0.13851   0.15096  -0.00032  -0.06018  -0.00006
   2    28     1         -0.12235   0.13340  -0.00020  -0.05322  -0.00008
   3    28     1         -0.28795   0.31389  -0.00056  -0.12522  -0.00015
   1    29     1         -0.13851   0.15096  -0.00032  -0.06018   0.00006
   2    29     1         -0.12235   0.13340  -0.00020  -0.05322   0.00008
   3    29     1          0.28795  -0.31389   0.00056   0.12522  -0.00015
   1    30     1          0.05743   0.00041   0.14430  -0.13230   0.00000
   2    30     1          0.17677   0.00093   0.44347  -0.40657   0.00000
   3    30     1          0.00000   0.00000   0.00000   0.00000   0.01905
   1    31     1         -0.05338  -0.00020  -0.13368   0.12258  -0.17998
   2    31     1          0.06042   0.00032   0.15115  -0.13861   0.22632
   3    31     1         -0.12540  -0.00057  -0.31395   0.28791  -0.40504
   1    32     1         -0.05338  -0.00020  -0.13368   0.12258   0.17998
   2    32     1          0.06042   0.00032   0.15116  -0.13861  -0.22632
   3    32     1          0.12540   0.00057   0.31395  -0.28791  -0.40504
   1    33     1         -0.00002   0.00001  -0.00002  -0.00001   0.00004
   2    33     1          0.00002   0.00002  -0.00013   0.00007  -0.00002
   3    33     1         -0.00003  -0.00010  -0.00004   0.00005  -0.00025
   1    34     1          0.00002   0.00001  -0.00002   0.00001   0.00004
   2    34     1         -0.00002   0.00002  -0.00013  -0.00007  -0.00002
   3    34     1         -0.00003   0.00010   0.00004   0.00005   0.00025
   1    35     1          0.00002   0.00001  -0.00002   0.00001  -0.00004
   2    35     1         -0.00002   0.00002  -0.00013  -0.00007   0.00002
   3    35     1          0.00003  -0.00010  -0.00004  -0.00005   0.00025
   1    36     1         -0.00002   0.00001  -0.00002  -0.00001  -0.00004
   2    36     1          0.00002   0.00002  -0.00013   0.00007   0.00002
   3    36     1          0.00003   0.00010   0.00004  -0.00005  -0.00025
                          96        97        98        99       100
                           A         A         A         A         A
       Frequencies ---  3117.9807 3118.1182 3118.2550 3609.7577 3609.8586
    Reduced masses ---     1.1023    1.1024    1.1023    1.0355    1.0354
   Force constants ---     6.3137    6.3150    6.3150    7.9495    7.9494
    IR Intensities ---     5.8985    0.0000   35.2125    2.0969    0.0000
  Raman Activities ---     0.0000  123.7958    0.0000    0.0026 1063.9357
    Depol. (Plane) ---     0.7499    0.7500    0.7499    0.1998    0.1998
    Depol. (Unpol) ---     0.8570    0.8571    0.8571    0.3331    0.3331
 Coord Atom Element:
   1     1     6          0.00000   0.00000   0.00000   0.00000   0.00000
   2     1     6          0.00000   0.00000   0.00000   0.00000   0.00000
   3     1     6          0.00077  -0.00205   0.00219   0.00015   0.00000
   1     2     6          0.00000   0.00000   0.00000   0.00000   0.00000
   2     2     6          0.00000   0.00000   0.00000   0.00000   0.00000
   3     2     6          0.02551  -0.06555   0.06035   0.00000   0.00000
   1     3     6          0.00000   0.00000   0.00000   0.00000  -0.00005
   2     3     6          0.00000   0.00000   0.00000   0.00000   0.00000
   3     3     6         -0.00209   0.00000   0.00104  -0.00001   0.00000
   1     4     6          0.00000   0.00000   0.00000   0.00000   0.00000
   2     4     6          0.00000   0.00000   0.00000   0.00000   0.00000
   3     4     6         -0.06033   0.00003   0.02547  -0.00001   0.00000
   1     5     1          0.00000   0.00000   0.00000   0.00000  -0.00004
   2     5     1          0.00000   0.00000   0.00000   0.00000   0.00004
   3     5     1          0.00738  -0.01904   0.01754   0.00004   0.00000
   1     6     1         -0.08800   0.22617  -0.20831  -0.00009   0.00003
   2     6     1         -0.06990   0.17962  -0.16558  -0.00012   0.00006
   3     6     1         -0.15771   0.40527  -0.37330  -0.00011  -0.00003
   1     7     1          0.08800  -0.22617   0.20831   0.00009   0.00003
   2     7     1          0.06990  -0.17962   0.16558   0.00012   0.00006
   3     7     1         -0.15771   0.40527  -0.37330  -0.00011   0.00003
   1     8     1          0.00000   0.00000   0.00000   0.00000   0.00003
   2     8     1          0.00000   0.00000   0.00000   0.00000  -0.00001
   3     8     1         -0.01753  -0.00004   0.00743  -0.00002   0.00000
   1     9     1          0.16588  -0.00008  -0.07012   0.00000   0.00000
   2     9     1         -0.20846   0.00006   0.08806  -0.00003   0.00002
   3     9     1          0.37310  -0.00016  -0.15760   0.00002   0.00006
   1    10     1         -0.16588   0.00008   0.07012   0.00000   0.00000
   2    10     1          0.20846  -0.00006  -0.08806   0.00003   0.00002
   3    10     1          0.37310  -0.00016  -0.15760   0.00002  -0.00006
   1    11     8          0.00003  -0.00008   0.00007   0.00000   0.00000
   2    11     8         -0.00004   0.00004  -0.00014  -0.00001   0.00001
   3    11     8         -0.00014   0.00040  -0.00045  -0.00008   0.00002
   1    12     8         -0.00003   0.00008  -0.00007   0.00000   0.00000
   2    12     8          0.00004  -0.00004   0.00014   0.00001   0.00001
   3    12     8         -0.00014   0.00040  -0.00045  -0.00008  -0.00002
   1    13     8          0.00012   0.00000  -0.00008   0.00006   0.00006
   2    13     8          0.00008  -0.00001  -0.00003   0.00000   0.00000
   3    13     8          0.00042   0.00000  -0.00023   0.00002   0.00004
   1    14     8         -0.00012   0.00000   0.00008  -0.00006  -0.00006
   2    14     8         -0.00008  -0.00001   0.00003   0.00000   0.00000
   3    14     8          0.00042   0.00000  -0.00023   0.00002   0.00004
   1    15     8          0.00000   0.00000   0.00000   0.00000   0.00000
   2    15     8          0.00000  -0.00003   0.00000   0.00000   0.00000
   3    15     8         -0.00001   0.00000  -0.00003   0.03031   0.03037
   1    16    45          0.00000   0.00000   0.00000   0.00000   0.00000
   2    16    45          0.00000   0.00002   0.00000   0.00000   0.00000
   3    16    45          0.00000   0.00000  -0.00001  -0.00002  -0.00001
   1    17    45          0.00000   0.00000   0.00000   0.00000   0.00000
   2    17    45          0.00000  -0.00002   0.00000   0.00000   0.00000
   3    17    45          0.00000   0.00000  -0.00001  -0.00002   0.00001
   1    18     8         -0.00003  -0.00008  -0.00007   0.00000   0.00000
   2    18     8          0.00004   0.00004   0.00014   0.00001  -0.00001
   3    18     8         -0.00014  -0.00040  -0.00045  -0.00008   0.00002
   1    19     8         -0.00012   0.00000   0.00008  -0.00006   0.00006
   2    19     8         -0.00008   0.00001   0.00003   0.00000   0.00000
   3    19     8          0.00042   0.00000  -0.00023   0.00002  -0.00004
   1    20     6          0.00000   0.00000   0.00000   0.00000   0.00005
   2    20     6          0.00000   0.00000   0.00000   0.00000   0.00000
   3    20     6         -0.00209   0.00000   0.00104  -0.00001   0.00000
   1    21     8          0.00003   0.00008   0.00007   0.00000   0.00000
   2    21     8         -0.00004  -0.00004  -0.00014  -0.00001  -0.00001
   3    21     8         -0.00014  -0.00040  -0.00045  -0.00008  -0.00002
   1    22     8          0.00012   0.00000  -0.00008   0.00006  -0.00006
   2    22     8          0.00008   0.00001  -0.00003   0.00000   0.00000
   3    22     8          0.00042   0.00000  -0.00023   0.00002  -0.00004
   1    23     8          0.00000   0.00000   0.00000   0.00000   0.00000
   2    23     8          0.00000   0.00003   0.00000   0.00000   0.00000
   3    23     8         -0.00001   0.00000  -0.00003   0.03041  -0.03027
   1    24     6          0.00000   0.00000   0.00000   0.00000   0.00000
   2    24     6          0.00000   0.00000   0.00000   0.00000   0.00000
   3    24     6          0.00077   0.00205   0.00219   0.00015   0.00000
   1    25     6          0.00000   0.00000   0.00000   0.00000   0.00000
   2    25     6          0.00000   0.00000   0.00000   0.00000   0.00000
   3    25     6         -0.06033  -0.00003   0.02547  -0.00001   0.00000
   1    26     6          0.00000   0.00000   0.00000   0.00000   0.00000
   2    26     6          0.00000   0.00000   0.00000   0.00000   0.00000
   3    26     6          0.02551   0.06555   0.06034   0.00000   0.00000
   1    27     1          0.00000   0.00000   0.00000   0.00000   0.00004
   2    27     1          0.00000   0.00000   0.00000   0.00000  -0.00004
   3    27     1          0.00738   0.01904   0.01754   0.00004   0.00000
   1    28     1         -0.08800  -0.22617  -0.20831  -0.00009  -0.00003
   2    28     1         -0.06990  -0.17962  -0.16558  -0.00012  -0.00006
   3    28     1         -0.15771  -0.40528  -0.37329  -0.00011   0.00003
   1    29     1          0.08800   0.22617   0.20831   0.00009  -0.00003
   2    29     1          0.06990   0.17962   0.16558   0.00012  -0.00006
   3    29     1         -0.15771  -0.40528  -0.37329  -0.00011  -0.00003
   1    30     1          0.00000   0.00000   0.00000   0.00000  -0.00003
   2    30     1          0.00000   0.00000   0.00000   0.00000   0.00001
   3    30     1         -0.01753   0.00004   0.00743  -0.00002   0.00000
   1    31     1          0.16588   0.00008  -0.07012   0.00000   0.00000
   2    31     1         -0.20845  -0.00006   0.08806  -0.00003  -0.00002
   3    31     1          0.37309   0.00015  -0.15760   0.00002  -0.00006
   1    32     1         -0.16588  -0.00008   0.07012   0.00000   0.00000
   2    32     1          0.20845   0.00006  -0.08806   0.00003  -0.00002
   3    32     1          0.37309   0.00015  -0.15760   0.00002   0.00006
   1    33     1          0.00001  -0.00001  -0.00021   0.43898  -0.43752
   2    33     1          0.00002  -0.00024   0.00001   0.00255  -0.00254
   3    33     1          0.00023   0.00001  -0.00009  -0.24002   0.23944
   1    34     1         -0.00001  -0.00001   0.00021  -0.43898   0.43752
   2    34     1         -0.00002  -0.00024  -0.00001  -0.00255   0.00254
   3    34     1          0.00023  -0.00001  -0.00009  -0.24002   0.23944
   1    35     1          0.00001   0.00001  -0.00021   0.43761   0.43889
   2    35     1          0.00002   0.00024   0.00001   0.00254   0.00255
   3    35     1          0.00023  -0.00001  -0.00009  -0.23927  -0.24019
   1    36     1         -0.00001   0.00001   0.00021  -0.43761  -0.43889
   2    36     1         -0.00002   0.00024  -0.00001  -0.00254  -0.00255
   3    36     1          0.00023   0.00001  -0.00009  -0.23927  -0.24019
                         101       102
                           A         A
       Frequencies ---  3794.8639 3794.9640
    Reduced masses ---     1.0904    1.0903
   Force constants ---     9.2515    9.2511
    IR Intensities ---   133.1733    0.0001
  Raman Activities ---     0.0001  162.7863
    Depol. (Plane) ---     0.7500    0.7500
    Depol. (Unpol) ---     0.8571    0.8571
 Coord Atom Element:
   1     1     6          0.00002   0.00000
   2     1     6          0.00000   0.00000
   3     1     6          0.00000   0.00000
   1     2     6          0.00000   0.00000
   2     2     6          0.00000   0.00000
   3     2     6          0.00000   0.00000
   1     3     6         -0.00004   0.00000
   2     3     6          0.00000   0.00000
   3     3     6          0.00000   0.00006
   1     4     6          0.00000   0.00000
   2     4     6         -0.00001   0.00000
   3     4     6          0.00000   0.00002
   1     5     1         -0.00007   0.00000
   2     5     1          0.00004   0.00000
   3     5     1          0.00000  -0.00003
   1     6     1          0.00001   0.00002
   2     6     1         -0.00002  -0.00001
   3     6     1         -0.00004   0.00001
   1     7     1          0.00001  -0.00002
   2     7     1         -0.00002   0.00001
   3     7     1          0.00004   0.00001
   1     8     1         -0.00006   0.00000
   2     8     1         -0.00004   0.00000
   3     8     1          0.00000   0.00007
   1     9     1         -0.00009  -0.00008
   2     9     1          0.00005   0.00011
   3     9     1          0.00003  -0.00010
   1    10     1         -0.00009   0.00008
   2    10     1          0.00005  -0.00011
   3    10     1         -0.00003  -0.00010
   1    11     8         -0.00002   0.00001
   2    11     8          0.00000   0.00000
   3    11     8          0.00000   0.00000
   1    12     8         -0.00002  -0.00001
   2    12     8          0.00000   0.00000
   3    12     8          0.00000   0.00000
   1    13     8          0.00004  -0.00006
   2    13     8          0.00000   0.00000
   3    13     8          0.00001  -0.00007
   1    14     8          0.00004  -0.00006
   2    14     8          0.00000   0.00000
   3    14     8         -0.00001   0.00007
   1    15     8         -0.05243   0.05248
   2    15     8         -0.00030   0.00030
   3    15     8          0.00000   0.00000
   1    16    45         -0.00001   0.00004
   2    16    45          0.00000   0.00000
   3    16    45          0.00000   0.00000
   1    17    45         -0.00001  -0.00004
   2    17    45          0.00000   0.00000
   3    17    45          0.00000   0.00000
   1    18     8         -0.00002   0.00001
   2    18     8          0.00000   0.00000
   3    18     8          0.00000   0.00000
   1    19     8          0.00004   0.00006
   2    19     8          0.00000   0.00000
   3    19     8         -0.00001  -0.00007
   1    20     6         -0.00004   0.00000
   2    20     6          0.00000   0.00000
   3    20     6          0.00000  -0.00006
   1    21     8         -0.00002  -0.00001
   2    21     8          0.00000   0.00000
   3    21     8          0.00000   0.00000
   1    22     8          0.00004   0.00006
   2    22     8          0.00000   0.00000
   3    22     8          0.00001   0.00007
   1    23     8         -0.05252  -0.05240
   2    23     8         -0.00030  -0.00030
   3    23     8          0.00000   0.00000
   1    24     6          0.00002   0.00000
   2    24     6          0.00000   0.00000
   3    24     6          0.00000   0.00000
   1    25     6          0.00000   0.00000
   2    25     6         -0.00001   0.00000
   3    25     6          0.00000  -0.00002
   1    26     6          0.00000   0.00000
   2    26     6          0.00000   0.00000
   3    26     6          0.00000   0.00000
   1    27     1         -0.00007   0.00000
   2    27     1          0.00004   0.00000
   3    27     1          0.00000   0.00003
   1    28     1          0.00001  -0.00002
   2    28     1         -0.00002   0.00001
   3    28     1         -0.00004  -0.00001
   1    29     1          0.00001   0.00002
   2    29     1         -0.00002  -0.00001
   3    29     1          0.00004  -0.00001
   1    30     1         -0.00006   0.00000
   2    30     1         -0.00004   0.00000
   3    30     1          0.00000  -0.00007
   1    31     1         -0.00009   0.00008
   2    31     1          0.00005  -0.00011
   3    31     1          0.00003   0.00010
   1    32     1         -0.00009  -0.00008
   2    32     1          0.00005   0.00011
   3    32     1         -0.00003   0.00010
   1    33     1          0.41702   0.41626
   2    33     1          0.00242   0.00241
   3    33     1         -0.27409  -0.27375
   1    34     1          0.41702   0.41626
   2    34     1          0.00242   0.00241
   3    34     1          0.27409   0.27375
   1    35     1          0.41632  -0.41695
   2    35     1          0.00242  -0.00242
   3    35     1         -0.27364   0.27420
   1    36     1          0.41632  -0.41695
   2    36     1          0.00241  -0.00242
   3    36     1          0.27364  -0.27420
 Harmonic frequencies (cm**-1), IR intensities (KM/Mole), Raman scattering
 activities (A**4/AMU), depolarization ratios for plane and unpolarized
 incident light, reduced masses (AMU), force constants (mDyne/A),
 and normal coordinates:
                     1                      2                      3
                     A                      A                      A
 Frequencies --  -352.6154              -344.6773                31.4213
 Red. masses --     1.1538                 1.1503                 1.0093
 Frc consts  --     0.0845                 0.0805                 0.0006
 IR Inten    --     0.0000               661.3752                 0.0020
 Raman Activ --    17.5356                 0.0000                 0.0000
 Depolar (P) --     0.7500                 0.7500                 0.7500
 Depolar (U) --     0.8571                 0.8571                 0.8571
  Atom  AN      X      Y      Z        X      Y      Z        X      Y      Z
     1   6     0.00   0.00   0.00     0.00   0.00   0.00     0.00   0.00   0.00
     2   6     0.00   0.00   0.00     0.00   0.00   0.00     0.00   0.00   0.00
     3   6     0.00   0.00   0.00     0.00   0.00   0.00     0.00   0.00   0.00
     4   6     0.00   0.00   0.00     0.00   0.00   0.00     0.00   0.00   0.00
     5   1     0.00   0.00   0.00     0.00   0.00   0.00     0.00   0.00   0.33
     6   1     0.00   0.00   0.00     0.00   0.00   0.00     0.27   0.00  -0.14
     7   1     0.00   0.00   0.00     0.00   0.00   0.00    -0.27   0.00  -0.14
     8   1     0.00   0.00   0.00     0.00   0.00   0.00     0.00   0.00  -0.28
     9   1     0.00   0.00   0.00     0.00   0.00   0.00     0.00   0.22   0.12
    10   1     0.00   0.00   0.00     0.00   0.00   0.00     0.00  -0.22   0.12
    11   8     0.00   0.00  -0.01     0.00   0.00   0.00     0.00   0.00   0.00
    12   8     0.00   0.00  -0.01     0.00   0.00   0.00     0.00   0.00   0.00
    13   8     0.00   0.00   0.00     0.00   0.00   0.00     0.00   0.00   0.00
    14   8     0.00   0.00   0.00     0.00   0.00   0.00     0.00   0.00   0.00
    15   8     0.00  -0.07   0.00     0.00   0.07   0.00     0.00   0.00   0.00
    16  45     0.00   0.00   0.00     0.00   0.00   0.00     0.00   0.00   0.00
    17  45     0.00   0.00   0.00     0.00   0.00   0.00     0.00   0.00   0.00
    18   8     0.00   0.00   0.01     0.00   0.00   0.00     0.00   0.00   0.00
    19   8     0.00   0.00   0.00     0.00   0.00   0.00     0.00   0.00   0.00
    20   6     0.00   0.00   0.00     0.00   0.00   0.00     0.00   0.00   0.00
    21   8     0.00   0.00   0.01     0.00   0.00   0.00     0.00   0.00   0.00
    22   8     0.00   0.00   0.00     0.00   0.00   0.00     0.00   0.00   0.00
    23   8     0.00   0.07   0.00     0.00   0.07   0.00     0.00   0.00   0.00
    24   6     0.00   0.00   0.00     0.00   0.00   0.00     0.00   0.00   0.00
    25   6     0.00   0.00   0.00     0.00   0.00   0.00     0.00   0.00   0.00
    26   6     0.00   0.00   0.00     0.00   0.00   0.00     0.00   0.00   0.00
    27   1     0.00   0.00   0.00     0.00   0.00   0.00     0.00   0.00   0.33
    28   1     0.00   0.00   0.00     0.00   0.00   0.00     0.27   0.00  -0.14
    29   1     0.00   0.00   0.00     0.00   0.00   0.00    -0.27   0.00  -0.14
    30   1     0.00   0.00   0.00     0.00   0.00   0.00     0.00   0.00  -0.28
    31   1     0.00   0.00   0.00     0.00   0.00   0.00     0.00   0.22   0.12
    32   1     0.00   0.00   0.00     0.00   0.00   0.00     0.00  -0.22   0.12
    33   1     0.00  -0.50   0.00     0.00  -0.50   0.00     0.00  -0.01   0.00
    34   1     0.00  -0.50   0.00     0.00  -0.50   0.00     0.00   0.01   0.00
    35   1     0.00   0.50   0.00     0.00  -0.50   0.00     0.00  -0.01   0.00
    36   1     0.00   0.50   0.00     0.00  -0.50   0.00     0.00   0.01   0.00
                     4                      5                      6
                     A                      A                      A
 Frequencies --    32.8250                33.3959                34.5864
 Red. masses --     1.0121                 1.0127                 1.0215
 Frc consts  --     0.0006                 0.0007                 0.0007
 IR Inten    --     0.0000                 0.0000                 0.6157
 Raman Activ --     1.0697                 1.1216                 0.0000
 Depolar (P) --     0.7500                 0.7500                 0.7500
 Depolar (U) --     0.8571                 0.8571                 0.8571
  Atom  AN      X      Y      Z        X      Y      Z        X      Y      Z
     1   6     0.00   0.00   0.00     0.00   0.00   0.00     0.00   0.00   0.00
     2   6     0.00   0.00   0.00     0.00   0.00  -0.01     0.00   0.00   0.00
     3   6     0.00   0.00   0.00     0.00   0.00   0.00     0.00   0.00   0.00
     4   6     0.00   0.00  -0.01     0.00   0.00   0.01     0.00   0.00  -0.01
     5   1     0.00   0.00  -0.43     0.00   0.00   0.00     0.00   0.00  -0.28
     6   1    -0.35   0.00   0.18     0.01   0.00  -0.01    -0.22   0.00   0.12
     7   1     0.35   0.00   0.18    -0.01   0.00  -0.01     0.22   0.00   0.12
     8   1     0.00   0.00   0.00     0.00   0.00   0.43     0.00   0.00  -0.33
     9   1     0.00  -0.01  -0.01     0.00  -0.35  -0.18     0.00   0.27   0.14
    10   1     0.00   0.01  -0.01     0.00   0.35  -0.18     0.00  -0.27   0.14
    11   8     0.00   0.00   0.00     0.00   0.00   0.00     0.01   0.00   0.00
    12   8     0.00   0.00   0.00     0.00   0.00   0.00    -0.01   0.00   0.00
    13   8     0.00   0.00   0.00     0.00   0.00   0.00     0.00  -0.01   0.00
    14   8     0.00   0.00   0.00     0.00   0.00   0.00     0.00   0.01   0.00
    15   8    -0.01   0.00   0.00     0.00   0.00   0.00     0.00   0.00   0.00
    16  45     0.00   0.00   0.00     0.00   0.00   0.00     0.00   0.00   0.00
    17  45     0.00   0.00   0.00     0.00   0.00   0.00     0.00   0.00   0.00
    18   8     0.00   0.00   0.00     0.00   0.00   0.00    -0.01   0.00   0.00
    19   8     0.00   0.00   0.00     0.00   0.00   0.00     0.00   0.01   0.00
    20   6     0.00   0.00   0.00     0.00   0.00   0.00     0.00   0.00   0.00
    21   8     0.00   0.00   0.00     0.00   0.00   0.00     0.01   0.00   0.00
    22   8     0.00   0.00   0.00     0.00   0.00   0.00     0.00  -0.01   0.00
    23   8     0.01   0.00   0.00     0.00   0.00   0.00     0.00   0.00   0.00
    24   6     0.00   0.00   0.00     0.00   0.00   0.00     0.00   0.00   0.00
    25   6     0.00   0.00   0.01     0.00   0.00  -0.01     0.00   0.00  -0.01
    26   6     0.00   0.00   0.00     0.00   0.00   0.01     0.00   0.00   0.00
    27   1     0.00   0.00   0.43     0.00   0.00   0.00     0.00   0.00  -0.28
    28   1     0.35   0.00  -0.18    -0.01   0.00   0.01    -0.22   0.00   0.12
    29   1    -0.35   0.00  -0.18     0.01   0.00   0.01     0.22   0.00   0.12
    30   1     0.00   0.00   0.00     0.00   0.00  -0.43     0.00   0.00  -0.33
    31   1     0.00   0.01   0.01     0.00   0.35   0.18     0.00   0.27   0.14
    32   1     0.00  -0.01   0.01     0.00  -0.35   0.18     0.00  -0.27   0.14
    33   1     0.01   0.00   0.00     0.01   0.01   0.00     0.00  -0.01   0.00
    34   1     0.01   0.00   0.00     0.01   0.01   0.00     0.00   0.01   0.00
    35   1    -0.01   0.00   0.00    -0.01  -0.01   0.00     0.00  -0.01   0.00
    36   1    -0.01   0.00   0.00    -0.01  -0.01   0.00     0.00   0.01   0.00
                     7                      8                      9
                     A                      A                      A
 Frequencies --    57.4207                59.6222                64.7534
 Red. masses --     3.3759                 2.8885                 3.3538
 Frc consts  --     0.0066                 0.0060                 0.0083
 IR Inten    --    13.3495                 0.0000                 0.0000
 Raman Activ --     0.0000                13.5538                 1.6189
 Depolar (P) --     0.7499                 0.7500                 0.7500
 Depolar (U) --     0.8571                 0.8571                 0.8571
  Atom  AN      X      Y      Z        X      Y      Z        X      Y      Z
     1   6    -0.06   0.00   0.00     0.08   0.00   0.00     0.00   0.00   0.00
     2   6    -0.14   0.00   0.00     0.18   0.00   0.00     0.00   0.00   0.00
     3   6     0.00   0.00   0.00     0.00   0.08   0.00     0.00   0.00  -0.07
     4   6     0.00   0.00   0.00     0.00   0.18   0.00     0.00   0.00  -0.11
     5   1    -0.16  -0.06   0.00     0.21   0.08   0.00     0.00   0.00   0.00
     6   1    -0.16   0.02   0.00     0.21  -0.03   0.00     0.00   0.00   0.00
     7   1    -0.16   0.02   0.00     0.21  -0.03   0.00     0.00   0.00   0.00
     8   1     0.00   0.00   0.00    -0.08   0.20   0.00     0.00   0.00  -0.09
     9   1     0.00   0.00   0.00     0.03   0.21   0.00     0.02  -0.02  -0.13
    10   1     0.00   0.00   0.00     0.03   0.21   0.00    -0.02   0.02  -0.13
    11   8    -0.03   0.00   0.00     0.04   0.00   0.00    -0.01   0.00   0.00
    12   8    -0.03   0.00   0.00     0.04   0.00   0.00     0.01   0.00   0.00
    13   8    -0.01   0.00   0.00     0.00   0.04   0.00    -0.02   0.00  -0.06
    14   8    -0.01   0.00   0.00     0.00  -0.04   0.00    -0.02   0.00   0.06
    15   8     0.25   0.00   0.00     0.00   0.00   0.00     0.24   0.00   0.00
    16  45    -0.01   0.00   0.00     0.00   0.00   0.00    -0.01   0.00   0.00
    17  45    -0.01   0.00   0.00     0.00   0.00   0.00     0.01   0.00   0.00
    18   8    -0.03   0.00   0.00    -0.04   0.00   0.00    -0.01   0.00   0.00
    19   8    -0.01   0.00   0.00     0.00   0.04   0.00     0.02   0.00  -0.06
    20   6     0.00   0.00   0.00     0.00  -0.08   0.00     0.00   0.00   0.07
    21   8    -0.03   0.00   0.00    -0.04   0.00   0.00     0.01   0.00   0.00
    22   8    -0.01   0.00   0.00     0.00  -0.04   0.00     0.02   0.00   0.06
    23   8     0.25   0.00   0.00     0.00   0.00   0.00    -0.24   0.00   0.00
    24   6    -0.06   0.00   0.00    -0.08   0.00   0.00     0.00   0.00   0.00
    25   6     0.00   0.00   0.00     0.00  -0.18   0.00     0.00   0.00   0.11
    26   6    -0.14   0.00   0.00    -0.18   0.00   0.00     0.00   0.00   0.00
    27   1    -0.16  -0.06   0.00    -0.21  -0.08   0.00     0.00   0.00   0.00
    28   1    -0.16   0.02   0.00    -0.21   0.03   0.00     0.00   0.00   0.00
    29   1    -0.16   0.02   0.00    -0.21   0.03   0.00     0.00   0.00   0.00
    30   1     0.00   0.00   0.00     0.08  -0.20   0.00     0.00   0.00   0.09
    31   1     0.00   0.00   0.00    -0.03  -0.21   0.00    -0.02   0.02   0.13
    32   1     0.00   0.00   0.00    -0.03  -0.21   0.00     0.02  -0.02   0.13
    33   1     0.36   0.00   0.18     0.00  -0.26   0.00    -0.38   0.00  -0.21
    34   1     0.36   0.00  -0.18     0.00   0.26   0.00    -0.38   0.00   0.21
    35   1     0.36   0.00   0.18     0.00   0.26   0.00     0.38   0.00   0.21
    36   1     0.36   0.00  -0.18     0.00  -0.26   0.00     0.38   0.00  -0.21
                    10                     11                     12
                     A                      A                      A
 Frequencies --    64.9999                65.0419                68.2501
 Red. masses --     1.3102                 3.5094                 3.5497
 Frc consts  --     0.0033                 0.0087                 0.0097
 IR Inten    --     0.0029                 1.2444                14.8028
 Raman Activ --     0.0000                 0.0000                 0.0000
 Depolar (P) --     0.7494                 0.7424                 0.7394
 Depolar (U) --     0.8567                 0.8521                 0.8502
  Atom  AN      X      Y      Z        X      Y      Z        X      Y      Z
     1   6     0.00   0.00   0.00     0.00  -0.03   0.00     0.07   0.00   0.00
     2   6     0.00   0.00   0.00     0.01  -0.03   0.00     0.26   0.01   0.00
     3   6     0.00   0.00   0.00     0.00   0.09   0.00    -0.04   0.00   0.00
     4   6     0.00   0.00   0.00    -0.01   0.29   0.00    -0.04  -0.01   0.00
     5   1     0.00   0.00  -0.02     0.01  -0.03   0.00     0.30   0.14   0.00
     6   1    -0.01   0.00   0.01     0.01  -0.03   0.00     0.31  -0.05   0.00
     7   1     0.01   0.00   0.01     0.01  -0.03   0.00     0.31  -0.05   0.00
     8   1     0.00   0.00  -0.03    -0.15   0.34   0.00    -0.04  -0.01   0.00
     9   1     0.00   0.02   0.01     0.06   0.35   0.00    -0.04  -0.01   0.00
    10   1     0.00  -0.02   0.01     0.06   0.35   0.00    -0.04  -0.01   0.00
    11   8    -0.04   0.00   0.00     0.00  -0.03   0.00     0.00   0.00   0.00
    12   8     0.04   0.00   0.00     0.00  -0.03   0.00     0.00   0.00   0.00
    13   8     0.00   0.06   0.00     0.00   0.02   0.00    -0.04   0.00   0.00
    14   8     0.00  -0.06   0.00     0.00   0.02   0.00    -0.04   0.00   0.00
    15   8     0.00   0.00   0.00     0.00  -0.06   0.00     0.11   0.00   0.00
    16  45     0.00   0.00   0.00     0.00  -0.03   0.00    -0.04   0.00   0.00
    17  45     0.00   0.00   0.00     0.00  -0.03   0.00    -0.04   0.00   0.00
    18   8     0.04   0.00   0.00     0.00  -0.03   0.00     0.00   0.00   0.00
    19   8     0.00  -0.06   0.00     0.00   0.02   0.00    -0.04   0.00   0.00
    20   6     0.00   0.00   0.00     0.00   0.09   0.00    -0.04   0.00   0.00
    21   8    -0.04   0.00   0.00     0.00  -0.03   0.00     0.00   0.00   0.00
    22   8     0.00   0.06   0.00     0.00   0.02   0.00    -0.04   0.00   0.00
    23   8     0.00   0.00   0.00     0.00  -0.06   0.00     0.11   0.00   0.00
    24   6     0.00   0.00   0.00     0.00  -0.03   0.00     0.07   0.00   0.00
    25   6     0.00   0.00   0.00    -0.01   0.29   0.00    -0.04  -0.01   0.00
    26   6     0.00   0.00   0.00     0.01  -0.03   0.00     0.26   0.01   0.00
    27   1     0.00   0.00  -0.02     0.01  -0.03   0.00     0.30   0.14   0.00
    28   1    -0.01   0.00   0.01     0.01  -0.03   0.00     0.31  -0.05   0.00
    29   1     0.01   0.00   0.01     0.01  -0.03   0.00     0.31  -0.05   0.00
    30   1     0.00   0.00  -0.03    -0.15   0.34   0.00    -0.04  -0.01   0.00
    31   1     0.00   0.02   0.01     0.06   0.35   0.00    -0.04  -0.01   0.00
    32   1     0.00  -0.02   0.01     0.06   0.35   0.00    -0.04  -0.01   0.00
    33   1     0.00   0.49   0.00     0.00  -0.06   0.00     0.19   0.00   0.11
    34   1     0.00  -0.49   0.00     0.00  -0.06   0.00     0.19   0.00  -0.11
    35   1     0.00   0.49   0.00     0.00  -0.06   0.00     0.19   0.00   0.11
    36   1     0.00  -0.49   0.00     0.00  -0.06   0.00     0.19   0.00  -0.11
                    13                     14                     15
                     A                      A                      A
 Frequencies --    69.3116                73.3313                97.4200
 Red. masses --     3.5312                 1.0876                 5.7036
 Frc consts  --     0.0100                 0.0034                 0.0319
 IR Inten    --     0.0057                 0.0000                 9.0785
 Raman Activ --     0.0000                 1.6012                 0.0000
 Depolar (P) --     0.7488                 0.7500                 0.7499
 Depolar (U) --     0.8563                 0.8571                 0.8571
  Atom  AN      X      Y      Z        X      Y      Z        X      Y      Z
     1   6     0.00   0.00   0.00    -0.01   0.00   0.00     0.00  -0.04   0.00
     2   6     0.00   0.00  -0.01    -0.04   0.00   0.00     0.00  -0.04   0.00
     3   6     0.00   0.00   0.00     0.00  -0.01   0.00     0.00  -0.01   0.00
     4   6     0.00   0.00   0.00     0.00  -0.05   0.00     0.00   0.04   0.00
     5   1     0.00   0.00   0.06    -0.04  -0.02   0.00     0.00  -0.04   0.00
     6   1     0.05   0.00  -0.03    -0.04   0.01   0.00     0.00  -0.04   0.00
     7   1    -0.05   0.00  -0.03    -0.04   0.01   0.00     0.00  -0.04   0.00
     8   1     0.00   0.00   0.05     0.03  -0.05   0.00    -0.04   0.06   0.00
     9   1     0.00  -0.04  -0.03    -0.01  -0.06   0.00     0.02   0.06   0.00
    10   1     0.00   0.04  -0.03    -0.01  -0.06   0.00     0.02   0.06   0.00
    11   8     0.16   0.00   0.00     0.00   0.00   0.00     0.00  -0.04   0.00
    12   8    -0.16   0.00   0.00     0.00   0.00   0.00     0.00  -0.04   0.00
    13   8     0.00  -0.13   0.00     0.00   0.00   0.00     0.00  -0.03   0.00
    14   8     0.00   0.13   0.00     0.00   0.00   0.00     0.00  -0.03   0.00
    15   8     0.00   0.00   0.00     0.00   0.00   0.00     0.00   0.37   0.00
    16  45     0.00   0.00   0.00     0.00   0.00   0.00     0.00  -0.04   0.00
    17  45     0.00   0.00   0.00     0.00   0.00   0.00     0.00  -0.04   0.00
    18   8    -0.16   0.00   0.00     0.00   0.00   0.00     0.00  -0.04   0.00
    19   8     0.00   0.13   0.00     0.00   0.00   0.00     0.00  -0.03   0.00
    20   6     0.00   0.00   0.00     0.00   0.01   0.00     0.00  -0.01   0.00
    21   8     0.16   0.00   0.00     0.00   0.00   0.00     0.00  -0.04   0.00
    22   8     0.00  -0.13   0.00     0.00   0.00   0.00     0.00  -0.03   0.00
    23   8     0.00   0.00   0.00     0.00   0.00   0.00     0.00   0.37   0.00
    24   6     0.00   0.00   0.00     0.01   0.00   0.00     0.00  -0.04   0.00
    25   6     0.00   0.00   0.00     0.00   0.05   0.00     0.00   0.04   0.00
    26   6     0.00   0.00  -0.01     0.04   0.00   0.00     0.00  -0.04   0.00
    27   1     0.00   0.00   0.06     0.04   0.02   0.00     0.00  -0.04   0.00
    28   1     0.05   0.00  -0.03     0.04  -0.01   0.00     0.00  -0.04   0.00
    29   1    -0.05   0.00  -0.03     0.04  -0.01   0.00     0.00  -0.04   0.00
    30   1     0.00   0.00   0.05    -0.03   0.05   0.00    -0.04   0.06   0.00
    31   1     0.00  -0.04  -0.03     0.01   0.06   0.00     0.02   0.06   0.00
    32   1     0.00   0.04  -0.03     0.01   0.06   0.00     0.02   0.06   0.00
    33   1     0.00   0.45   0.00     0.00  -0.49   0.00     0.00   0.41   0.00
    34   1     0.00  -0.45   0.00     0.00   0.49   0.00     0.00   0.41   0.00
    35   1     0.00   0.45   0.00     0.00   0.49   0.00     0.00   0.41   0.00
    36   1     0.00  -0.45   0.00     0.00  -0.49   0.00     0.00   0.41   0.00
                    16                     17                     18
                     A                      A                      A
 Frequencies --   106.9371               122.0775               127.2582
 Red. masses --     5.4131                 4.4770                 4.7269
 Frc consts  --     0.0365                 0.0393                 0.0451
 IR Inten    --     0.0000                 0.0000                 0.0002
 Raman Activ --     3.1803                 0.0061                 0.0000
 Depolar (P) --     0.7500                 0.4284                 0.7425
 Depolar (U) --     0.8571                 0.5998                 0.8522
  Atom  AN      X      Y      Z        X      Y      Z        X      Y      Z
     1   6     0.00   0.00  -0.09     0.07   0.00   0.00     0.00   0.00   0.11
     2   6     0.00   0.00  -0.16    -0.16  -0.01   0.00     0.00   0.00   0.20
     3   6     0.00   0.00   0.00     0.00  -0.06   0.00     0.00   0.00  -0.12
     4   6     0.00   0.00   0.00    -0.01   0.15   0.00     0.00   0.00  -0.21
     5   1     0.00   0.00  -0.17    -0.21  -0.18   0.00     0.00   0.00   0.21
     6   1     0.01   0.05  -0.18    -0.23   0.07   0.00    -0.02  -0.06   0.24
     7   1    -0.01  -0.05  -0.18    -0.23   0.07   0.00     0.02   0.06   0.24
     8   1     0.00   0.00   0.00    -0.18   0.21   0.00     0.00   0.00  -0.21
     9   1     0.00   0.00   0.00     0.07   0.22   0.00     0.07  -0.02  -0.25
    10   1     0.00   0.00   0.00     0.07   0.22   0.00    -0.07   0.02  -0.25
    11   8     0.00  -0.03  -0.08     0.14   0.00   0.00     0.00   0.03   0.09
    12   8     0.00   0.03  -0.08     0.14   0.00   0.00     0.00  -0.03   0.09
    13   8     0.00  -0.01   0.00     0.00  -0.13   0.00    -0.04   0.00  -0.10
    14   8     0.00  -0.01   0.00     0.00   0.13   0.00     0.04   0.00  -0.10
    15   8     0.00   0.33   0.00     0.00   0.00   0.00     0.00   0.00   0.01
    16  45     0.00  -0.01   0.00     0.00   0.00   0.00     0.00   0.00   0.00
    17  45     0.00   0.01   0.00     0.00   0.00   0.00     0.00   0.00   0.00
    18   8     0.00  -0.03   0.08    -0.14   0.00   0.00     0.00  -0.03   0.09
    19   8     0.00   0.01   0.00     0.00  -0.13   0.00     0.04   0.00  -0.10
    20   6     0.00   0.00   0.00     0.00   0.06   0.00     0.00   0.00  -0.12
    21   8     0.00   0.03   0.08    -0.14   0.00   0.00     0.00   0.03   0.09
    22   8     0.00   0.01   0.00     0.00   0.13   0.00    -0.04   0.00  -0.10
    23   8     0.00  -0.33   0.00     0.00   0.00   0.00     0.00   0.00   0.01
    24   6     0.00   0.00   0.09    -0.07   0.00   0.00     0.00   0.00   0.11
    25   6     0.00   0.00   0.00     0.01  -0.15   0.00     0.00   0.00  -0.21
    26   6     0.00   0.00   0.16     0.16   0.01   0.00     0.00   0.00   0.20
    27   1     0.00   0.00   0.17     0.21   0.18   0.00     0.00   0.00   0.21
    28   1    -0.01  -0.05   0.18     0.23  -0.07   0.00    -0.02  -0.06   0.24
    29   1     0.01   0.05   0.18     0.23  -0.07   0.00     0.02   0.06   0.24
    30   1     0.00   0.00   0.00     0.18  -0.21   0.00     0.00   0.00  -0.21
    31   1     0.00   0.00   0.00    -0.07  -0.22   0.00     0.07  -0.02  -0.25
    32   1     0.00   0.00   0.00    -0.07  -0.22   0.00    -0.07   0.02  -0.25
    33   1     0.00  -0.35   0.00     0.00  -0.02   0.00     0.00   0.01   0.01
    34   1     0.00  -0.35   0.00     0.00   0.02   0.00     0.00  -0.01   0.01
    35   1     0.00   0.35   0.00     0.00   0.02   0.00     0.00   0.01   0.01
    36   1     0.00   0.35   0.00     0.00  -0.02   0.00     0.00  -0.01   0.01
                    19                     20                     21
                     A                      A                      A
 Frequencies --   157.4992               159.1923               166.8946
 Red. masses --    15.2073                16.3231                 4.5077
 Frc consts  --     0.2223                 0.2437                 0.0740
 IR Inten    --     0.0000                 0.0000                 3.7715
 Raman Activ --     4.4450                 3.1727                 0.0000
 Depolar (P) --     0.7500                 0.7500                 0.2373
 Depolar (U) --     0.8571                 0.8571                 0.3836
  Atom  AN      X      Y      Z        X      Y      Z        X      Y      Z
     1   6     0.00   0.00   0.01     0.00   0.00  -0.18     0.00   0.00   0.06
     2   6     0.00   0.00  -0.01     0.00   0.00  -0.10     0.00   0.00   0.19
     3   6     0.00   0.00  -0.18     0.00   0.00  -0.01     0.00   0.00   0.05
     4   6     0.00   0.00  -0.11     0.00   0.00   0.01     0.00   0.00   0.18
     5   1     0.00   0.00   0.02     0.00   0.00  -0.10     0.00   0.00   0.21
     6   1     0.01   0.01  -0.01    -0.01  -0.04  -0.07    -0.02  -0.10   0.25
     7   1    -0.01  -0.01  -0.01     0.01   0.04  -0.07     0.02   0.10   0.25
     8   1     0.00   0.00  -0.12     0.00   0.00  -0.01     0.00   0.00   0.19
     9   1    -0.03   0.01  -0.09    -0.01   0.01   0.02    -0.09   0.02   0.23
    10   1     0.03  -0.01  -0.09     0.01  -0.01   0.02     0.09  -0.02   0.23
    11   8     0.31   0.00   0.01     0.01   0.09  -0.23     0.00   0.05   0.03
    12   8    -0.31   0.00   0.01    -0.01  -0.09  -0.23     0.00  -0.05   0.03
    13   8     0.08  -0.01  -0.22     0.00   0.32  -0.01     0.04   0.00   0.03
    14   8     0.08  -0.01   0.22     0.00   0.32   0.01    -0.04   0.00   0.03
    15   8    -0.06   0.00   0.00     0.00  -0.10   0.00     0.00   0.00  -0.14
    16  45     0.14   0.00   0.00     0.00   0.15   0.00     0.00   0.00  -0.06
    17  45    -0.14   0.00   0.00     0.00  -0.15   0.00     0.00   0.00  -0.06
    18   8     0.31   0.00  -0.01     0.01   0.09   0.23     0.00  -0.05   0.03
    19   8    -0.08   0.01  -0.22     0.00  -0.32  -0.01    -0.04   0.00   0.03
    20   6     0.00   0.00   0.18     0.00   0.00   0.01     0.00   0.00   0.05
    21   8    -0.31   0.00  -0.01    -0.01  -0.09   0.23     0.00   0.05   0.03
    22   8    -0.08   0.01   0.22     0.00  -0.32   0.01     0.04   0.00   0.03
    23   8     0.06   0.00   0.00     0.00   0.10   0.00     0.00   0.00  -0.14
    24   6     0.00   0.00  -0.01     0.00   0.00   0.18     0.00   0.00   0.06
    25   6     0.00   0.00   0.11     0.00   0.00  -0.01     0.00   0.00   0.18
    26   6     0.00   0.00   0.01     0.00   0.00   0.10     0.00   0.00   0.19
    27   1     0.00   0.00  -0.02     0.00   0.00   0.10     0.00   0.00   0.21
    28   1    -0.01  -0.01   0.01     0.01   0.04   0.07    -0.02  -0.10   0.25
    29   1     0.01   0.01   0.01    -0.01  -0.04   0.07     0.02   0.10   0.25
    30   1     0.00   0.00   0.12     0.00   0.00   0.01     0.00   0.00   0.19
    31   1     0.03  -0.01   0.09     0.01  -0.01  -0.02    -0.09   0.02   0.23
    32   1    -0.03   0.01   0.09    -0.01   0.01  -0.02     0.09  -0.02   0.23
    33   1     0.16   0.00   0.15     0.00   0.20   0.00     0.00   0.00  -0.15
    34   1     0.16   0.00  -0.15     0.00   0.20   0.00     0.00   0.00  -0.15
    35   1    -0.16   0.00  -0.15     0.00  -0.20   0.00     0.00   0.00  -0.15
    36   1    -0.16   0.00   0.15     0.00  -0.20   0.00     0.00   0.00  -0.15
                    22                     23                     24
                     A                      A                      A
 Frequencies --   202.2580               211.8569               231.5664
 Red. masses --    12.0023                 6.2953                 5.1052
 Frc consts  --     0.2893                 0.1665                 0.1613
 IR Inten    --     0.0000                 0.0000                 0.0000
 Raman Activ --     0.0000                 0.3315                 0.0008
 Depolar (P) --     0.7366                 0.7500                 0.7500
 Depolar (U) --     0.8483                 0.8571                 0.8571
  Atom  AN      X      Y      Z        X      Y      Z        X      Y      Z
     1   6     0.00   0.00   0.01     0.14   0.00   0.00     0.00   0.00   0.00
     2   6     0.00   0.00   0.00    -0.09  -0.01   0.00     0.00   0.00   0.00
     3   6     0.00   0.00  -0.01     0.00   0.14   0.00     0.00   0.00  -0.11
     4   6     0.00   0.00   0.00     0.01  -0.09   0.00     0.00   0.00   0.19
     5   1     0.00   0.00   0.01    -0.15  -0.21   0.00     0.00   0.00   0.00
     6   1     0.00   0.01  -0.01    -0.16   0.08   0.00     0.00   0.00   0.00
     7   1     0.00  -0.01  -0.01    -0.16   0.08   0.00     0.00   0.00   0.00
     8   1     0.00   0.00  -0.01     0.21  -0.15   0.00     0.00   0.00   0.24
     9   1    -0.01   0.00   0.01    -0.08  -0.17   0.00    -0.22   0.03   0.31
    10   1     0.01   0.00   0.01    -0.08  -0.17   0.00     0.22  -0.03   0.31
    11   8     0.30   0.00   0.01     0.18   0.00   0.00    -0.14  -0.01   0.00
    12   8    -0.30   0.00   0.01     0.18   0.00   0.00     0.14   0.01   0.00
    13   8     0.00   0.31  -0.01     0.00   0.19   0.00     0.09   0.01  -0.15
    14   8     0.00  -0.31  -0.01     0.00  -0.19   0.00     0.09   0.01   0.15
    15   8     0.00   0.00   0.00     0.00   0.00   0.00     0.00   0.00   0.00
    16  45     0.00   0.00   0.00     0.00   0.00   0.00     0.01  -0.01   0.00
    17  45     0.00   0.00   0.00     0.00   0.00   0.00    -0.01   0.01   0.00
    18   8    -0.30   0.00   0.01    -0.18   0.00   0.00    -0.14  -0.01   0.00
    19   8     0.00  -0.31  -0.01     0.00   0.19   0.00    -0.09  -0.01  -0.15
    20   6     0.00   0.00  -0.01     0.00  -0.14   0.00     0.00   0.00   0.11
    21   8     0.30   0.00   0.01    -0.18   0.00   0.00     0.14   0.01   0.00
    22   8     0.00   0.31  -0.01     0.00  -0.19   0.00    -0.09  -0.01   0.15
    23   8     0.00   0.00   0.00     0.00   0.00   0.00     0.00   0.00   0.00
    24   6     0.00   0.00   0.01    -0.14   0.00   0.00     0.00   0.00   0.00
    25   6     0.00   0.00   0.00    -0.01   0.09   0.00     0.00   0.00  -0.19
    26   6     0.00   0.00   0.00     0.09   0.01   0.00     0.00   0.00   0.00
    27   1     0.00   0.00   0.01     0.15   0.21   0.00     0.00   0.00   0.00
    28   1     0.00   0.01  -0.01     0.16  -0.08   0.00     0.00   0.00   0.00
    29   1     0.00  -0.01  -0.01     0.16  -0.08   0.00     0.00   0.00   0.00
    30   1     0.00   0.00  -0.01    -0.21   0.15   0.00     0.00   0.00  -0.24
    31   1    -0.01   0.00   0.01     0.08   0.17   0.00     0.22  -0.03  -0.31
    32   1     0.01   0.00   0.01     0.08   0.17   0.00    -0.22   0.03  -0.31
    33   1     0.00  -0.26   0.00     0.00   0.14   0.00    -0.01   0.00  -0.03
    34   1     0.00   0.26   0.00     0.00  -0.14   0.00    -0.01   0.00   0.03
    35   1     0.00  -0.26   0.00     0.00  -0.14   0.00     0.01   0.00   0.03
    36   1     0.00   0.26   0.00     0.00   0.14   0.00     0.01   0.00  -0.03
                    25                     26                     27
                     A                      A                      A
 Frequencies --   233.1866               238.4493               239.7840
 Red. masses --     5.2497                 6.8690                 6.9112
 Frc consts  --     0.1682                 0.2301                 0.2341
 IR Inten    --     0.0000                 0.0684                 0.6039
 Raman Activ --     0.0081                 0.0000                 0.0000
 Depolar (P) --     0.7500                 0.6263                 0.6938
 Depolar (U) --     0.8571                 0.7702                 0.8193
  Atom  AN      X      Y      Z        X      Y      Z        X      Y      Z
     1   6     0.00   0.00  -0.11     0.20   0.00   0.00     0.00  -0.10   0.00
     2   6     0.00   0.00   0.19    -0.11  -0.01   0.00     0.00  -0.12   0.00
     3   6     0.00   0.00   0.00    -0.10   0.00   0.00     0.00   0.20   0.00
     4   6     0.00   0.00   0.00    -0.11   0.00   0.00     0.02  -0.11   0.00
     5   1     0.00   0.00   0.24    -0.20  -0.30   0.00     0.00  -0.12   0.00
     6   1    -0.03  -0.22   0.30    -0.22   0.11   0.00     0.00  -0.12   0.00
     7   1     0.03   0.22   0.30    -0.22   0.11   0.00     0.00  -0.12   0.00
     8   1     0.00   0.00   0.00    -0.12   0.00   0.00     0.30  -0.19   0.00
     9   1     0.00   0.00  -0.01    -0.11   0.00   0.00    -0.11  -0.22   0.00
    10   1     0.00   0.00  -0.01    -0.11   0.00   0.00    -0.11  -0.22   0.00
    11   8    -0.01   0.09  -0.16     0.25   0.00   0.00     0.00  -0.09   0.00
    12   8     0.01  -0.09  -0.16     0.25   0.00   0.00     0.00  -0.09   0.00
    13   8     0.01  -0.14   0.00    -0.09   0.00   0.00     0.00   0.24   0.00
    14   8     0.01  -0.14   0.00    -0.09   0.00   0.00     0.00   0.24   0.00
    15   8     0.00   0.02   0.00    -0.01   0.00   0.00     0.00   0.00   0.00
    16  45     0.01   0.01   0.00    -0.03   0.00   0.00     0.00  -0.02   0.00
    17  45    -0.01  -0.01   0.00    -0.03   0.00   0.00     0.00  -0.02   0.00
    18   8    -0.01   0.09   0.16     0.25   0.00   0.00     0.00  -0.09   0.00
    19   8    -0.01   0.14   0.00    -0.09   0.00   0.00     0.00   0.24   0.00
    20   6     0.00   0.00   0.00    -0.10   0.00   0.00     0.00   0.20   0.00
    21   8     0.01  -0.09   0.16     0.25   0.00   0.00     0.00  -0.09   0.00
    22   8    -0.01   0.14   0.00    -0.09   0.00   0.00     0.00   0.24   0.00
    23   8     0.00  -0.02   0.00    -0.01   0.00   0.00     0.00   0.00   0.00
    24   6     0.00   0.00   0.11     0.20   0.00   0.00     0.00  -0.10   0.00
    25   6     0.00   0.00   0.00    -0.11   0.00   0.00     0.02  -0.11   0.00
    26   6     0.00   0.00  -0.19    -0.11  -0.01   0.00     0.00  -0.12   0.00
    27   1     0.00   0.00  -0.24    -0.20  -0.30   0.00     0.00  -0.12   0.00
    28   1     0.03   0.22  -0.30    -0.22   0.11   0.00     0.00  -0.12   0.00
    29   1    -0.03  -0.22  -0.30    -0.22   0.11   0.00     0.00  -0.12   0.00
    30   1     0.00   0.00   0.00    -0.12   0.00   0.00     0.30  -0.19   0.00
    31   1     0.00   0.00   0.01    -0.11   0.00   0.00    -0.11  -0.22   0.00
    32   1     0.00   0.00   0.01    -0.11   0.00   0.00    -0.11  -0.22   0.00
    33   1     0.01  -0.01   0.01     0.02   0.00   0.04     0.00  -0.02   0.00
    34   1     0.01  -0.01  -0.01     0.02   0.00  -0.04     0.00  -0.02   0.00
    35   1    -0.01   0.01  -0.01     0.02   0.00   0.04     0.00  -0.02   0.00
    36   1    -0.01   0.01   0.01     0.02   0.00  -0.04     0.00  -0.02   0.00
                    28                     29                     30
                     A                      A                      A
 Frequencies --   243.0872               251.2174               273.9561
 Red. masses --     7.3703                 4.9735                 6.5171
 Frc consts  --     0.2566                 0.1849                 0.2882
 IR Inten    --     0.0000                 0.5265                 0.0000
 Raman Activ --     0.4054                 0.0000                 0.5046
 Depolar (P) --     0.2717                 0.1512                 0.7500
 Depolar (U) --     0.4273                 0.2627                 0.8571
  Atom  AN      X      Y      Z        X      Y      Z        X      Y      Z
     1   6     0.00   0.04   0.00     0.00   0.00  -0.04     0.00   0.00   0.01
     2   6     0.00   0.04   0.00     0.00   0.00   0.09     0.00   0.00  -0.01
     3   6     0.04   0.00   0.00     0.00   0.00  -0.04     0.00   0.00   0.04
     4   6     0.04   0.00   0.00     0.00   0.00   0.10     0.00   0.00  -0.17
     5   1     0.00   0.04   0.00     0.00   0.00   0.12     0.00   0.00  -0.02
     6   1     0.00   0.04   0.00    -0.01  -0.11   0.14     0.00   0.01  -0.02
     7   1     0.00   0.04   0.00     0.01   0.11   0.14     0.00  -0.01  -0.02
     8   1     0.04   0.00   0.00     0.00   0.00   0.13     0.00   0.00  -0.22
     9   1     0.04   0.00   0.00    -0.12   0.01   0.16     0.18  -0.02  -0.26
    10   1     0.04   0.00   0.00     0.12  -0.01   0.16    -0.18   0.02  -0.26
    11   8     0.00   0.02   0.01     0.00   0.04  -0.07    -0.18  -0.01   0.01
    12   8     0.00   0.02  -0.01     0.00  -0.04  -0.07     0.18   0.01   0.01
    13   8     0.01   0.00   0.01     0.04   0.00  -0.07     0.01   0.01   0.03
    14   8    -0.01   0.00   0.01    -0.04   0.00  -0.07     0.01   0.01  -0.03
    15   8     0.00   0.00   0.39     0.00   0.00   0.29     0.03   0.00   0.00
    16  45     0.00   0.00   0.09     0.00   0.00  -0.03     0.12   0.00   0.00
    17  45     0.00   0.00  -0.09     0.00   0.00  -0.03    -0.12   0.00   0.00
    18   8     0.00  -0.02   0.01     0.00  -0.04  -0.07    -0.18  -0.01  -0.01
    19   8     0.01   0.00  -0.01    -0.04   0.00  -0.07    -0.01  -0.01   0.03
    20   6    -0.04   0.00   0.00     0.00   0.00  -0.04     0.00   0.00  -0.04
    21   8     0.00  -0.02  -0.01     0.00   0.04  -0.07     0.18   0.01  -0.01
    22   8    -0.01   0.00  -0.01     0.04   0.00  -0.07    -0.01  -0.01  -0.03
    23   8     0.00   0.00  -0.39     0.00   0.00   0.29    -0.03   0.00   0.00
    24   6     0.00  -0.04   0.00     0.00   0.00  -0.04     0.00   0.00  -0.01
    25   6    -0.04   0.00   0.00     0.00   0.00   0.10     0.00   0.00   0.17
    26   6     0.00  -0.04   0.00     0.00   0.00   0.09     0.00   0.00   0.01
    27   1     0.00  -0.04   0.00     0.00   0.00   0.12     0.00   0.00   0.02
    28   1     0.00  -0.04   0.00    -0.01  -0.11   0.14     0.00  -0.01   0.02
    29   1     0.00  -0.04   0.00     0.01   0.11   0.14     0.00   0.01   0.02
    30   1    -0.04   0.00   0.00     0.00   0.00   0.13     0.00   0.00   0.22
    31   1    -0.04   0.00   0.00    -0.12   0.01   0.16    -0.18   0.02   0.26
    32   1    -0.04   0.00   0.00     0.12  -0.01   0.16     0.18  -0.02   0.26
    33   1     0.00   0.00  -0.40     0.01   0.00   0.31     0.12   0.00   0.23
    34   1     0.00   0.00  -0.40    -0.01   0.00   0.31     0.12   0.00  -0.23
    35   1     0.00   0.00   0.40     0.01   0.00   0.31    -0.12   0.00  -0.23
    36   1     0.00   0.00   0.40    -0.01   0.00   0.31    -0.12   0.00   0.23
                    31                     32                     33
                     A                      A                      A
 Frequencies --   280.2116               282.9218               306.4791
 Red. masses --     4.2849                 9.2906                 6.7612
 Frc consts  --     0.1982                 0.4382                 0.3742
 IR Inten    --     0.0437                 0.0000                 0.0000
 Raman Activ --     0.0000                 0.1656                12.1805
 Depolar (P) --     0.4681                 0.7500                 0.7436
 Depolar (U) --     0.6377                 0.8571                 0.8530
  Atom  AN      X      Y      Z        X      Y      Z        X      Y      Z
     1   6     0.00   0.00  -0.10     0.00   0.00  -0.07     0.00  -0.18   0.00
     2   6     0.00   0.00   0.12     0.00   0.00   0.19     0.01  -0.21   0.00
     3   6     0.00   0.00   0.10     0.00   0.00   0.00     0.17   0.00   0.00
     4   6     0.00   0.00  -0.12     0.00   0.00  -0.01     0.21   0.01   0.00
     5   1     0.00   0.00   0.17     0.00   0.00   0.26     0.01  -0.21   0.00
     6   1    -0.02  -0.18   0.21    -0.02  -0.22   0.30     0.01  -0.22   0.00
     7   1     0.02   0.18   0.21     0.02   0.22   0.30     0.01  -0.22   0.00
     8   1     0.00   0.00  -0.17     0.00   0.00  -0.02     0.20   0.01   0.00
     9   1     0.18  -0.02  -0.22     0.01   0.00  -0.02     0.21   0.01   0.00
    10   1    -0.18   0.02  -0.22    -0.01   0.00  -0.02     0.21   0.01   0.00
    11   8     0.01   0.05  -0.13     0.01  -0.01  -0.05    -0.01  -0.14  -0.01
    12   8    -0.01  -0.05  -0.13    -0.01   0.01  -0.05    -0.01  -0.14   0.01
    13   8    -0.05   0.01   0.13    -0.01   0.21   0.01     0.14  -0.01   0.01
    14   8     0.05  -0.01   0.13    -0.01   0.21  -0.01    -0.14   0.01   0.01
    15   8     0.00   0.00   0.01     0.00   0.04   0.00     0.00   0.00   0.00
    16  45     0.00   0.00   0.00     0.00  -0.15   0.00     0.00   0.00   0.00
    17  45     0.00   0.00   0.00     0.00   0.15   0.00     0.00   0.00   0.00
    18   8    -0.01  -0.05  -0.13     0.01  -0.01   0.05     0.01   0.14  -0.01
    19   8     0.05  -0.01   0.13     0.01  -0.21   0.01     0.14  -0.01  -0.01
    20   6     0.00   0.00   0.10     0.00   0.00   0.00    -0.17   0.00   0.00
    21   8     0.01   0.05  -0.13    -0.01   0.01   0.05     0.01   0.14   0.01
    22   8    -0.05   0.01   0.13     0.01  -0.21  -0.01    -0.14   0.01  -0.01
    23   8     0.00   0.00   0.01     0.00  -0.04   0.00     0.00   0.00   0.00
    24   6     0.00   0.00  -0.10     0.00   0.00   0.07     0.00   0.18   0.00
    25   6     0.00   0.00  -0.12     0.00   0.00   0.01    -0.21  -0.01   0.00
    26   6     0.00   0.00   0.12     0.00   0.00  -0.19    -0.01   0.21   0.00
    27   1     0.00   0.00   0.17     0.00   0.00  -0.26    -0.01   0.21   0.00
    28   1    -0.02  -0.18   0.21     0.02   0.22  -0.30    -0.01   0.22   0.00
    29   1     0.02   0.18   0.21    -0.02  -0.22  -0.30    -0.01   0.22   0.00
    30   1     0.00   0.00  -0.17     0.00   0.00   0.02    -0.20  -0.01   0.00
    31   1     0.18  -0.02  -0.22    -0.01   0.00   0.02    -0.21  -0.01   0.00
    32   1    -0.18   0.02  -0.22     0.01   0.00   0.02    -0.21  -0.01   0.00
    33   1     0.00  -0.01   0.01     0.00   0.00   0.00     0.00   0.00   0.00
    34   1     0.00   0.01   0.01     0.00   0.00   0.00     0.00   0.00   0.00
    35   1     0.00  -0.01   0.01     0.00   0.00   0.00     0.00   0.00   0.00
    36   1     0.00   0.01   0.01     0.00   0.00   0.00     0.00   0.00   0.00
                    34                     35                     36
                     A                      A                      A
 Frequencies --   312.3864               331.6645               354.0338
 Red. masses --     6.7444                 7.2639                20.8221
 Frc consts  --     0.3878                 0.4708                 1.5377
 IR Inten    --     0.0000                33.5240                 0.0000
 Raman Activ --    32.7460                 0.0000                18.1896
 Depolar (P) --     0.1688                 0.0202                 0.0928
 Depolar (U) --     0.2888                 0.0397                 0.1698
  Atom  AN      X      Y      Z        X      Y      Z        X      Y      Z
     1   6     0.00   0.17   0.00     0.00   0.00  -0.12     0.00  -0.05   0.00
     2   6    -0.01   0.20   0.00     0.00   0.00   0.09     0.00  -0.07   0.00
     3   6     0.17   0.00   0.00     0.00   0.00  -0.12    -0.06   0.00   0.00
     4   6     0.21   0.01   0.00     0.00   0.00   0.08    -0.08   0.00   0.00
     5   1    -0.01   0.20   0.00     0.00   0.00   0.14     0.00  -0.07   0.00
     6   1    -0.01   0.20   0.00    -0.02  -0.18   0.18     0.00  -0.07   0.00
     7   1    -0.01   0.20   0.00     0.02   0.18   0.18     0.00  -0.07   0.00
     8   1     0.20   0.01   0.00     0.00   0.00   0.14    -0.08   0.00   0.00
     9   1     0.21   0.01   0.00    -0.17   0.02   0.17    -0.08   0.00   0.00
    10   1     0.21   0.01   0.00     0.17  -0.02   0.17    -0.08   0.00   0.00
    11   8     0.00   0.13   0.01     0.00   0.02  -0.13     0.00  -0.09   0.03
    12   8     0.00   0.13  -0.01     0.00  -0.02  -0.13     0.00  -0.09  -0.03
    13   8     0.13   0.00   0.01     0.02   0.00  -0.13    -0.10   0.00   0.03
    14   8    -0.13   0.00   0.01    -0.02   0.00  -0.13     0.10   0.00   0.03
    15   8     0.00   0.00  -0.11     0.00   0.00  -0.16     0.00   0.00  -0.32
    16  45     0.00   0.00   0.03     0.00   0.00   0.11     0.00   0.00   0.27
    17  45     0.00   0.00  -0.03     0.00   0.00   0.11     0.00   0.00  -0.27
    18   8     0.00  -0.13   0.01     0.00  -0.02  -0.13     0.00   0.09   0.03
    19   8     0.13   0.00  -0.01    -0.02   0.00  -0.13    -0.10   0.00  -0.03
    20   6    -0.17   0.00   0.00     0.00   0.00  -0.12     0.06   0.00   0.00
    21   8     0.00  -0.13  -0.01     0.00   0.02  -0.13     0.00   0.09  -0.03
    22   8    -0.13   0.00  -0.01     0.02   0.00  -0.13     0.10   0.00  -0.03
    23   8     0.00   0.00   0.11     0.00   0.00  -0.16     0.00   0.00   0.32
    24   6     0.00  -0.17   0.00     0.00   0.00  -0.12     0.00   0.05   0.00
    25   6    -0.21  -0.01   0.00     0.00   0.00   0.08     0.08   0.00   0.00
    26   6     0.01  -0.20   0.00     0.00   0.00   0.09     0.00   0.07   0.00
    27   1     0.01  -0.20   0.00     0.00   0.00   0.14     0.00   0.07   0.00
    28   1     0.01  -0.20   0.00    -0.02  -0.18   0.18     0.00   0.07   0.00
    29   1     0.01  -0.20   0.00     0.02   0.18   0.18     0.00   0.07   0.00
    30   1    -0.20  -0.01   0.00     0.00   0.00   0.14     0.08   0.00   0.00
    31   1    -0.21  -0.01   0.00    -0.17   0.02   0.17     0.08   0.00   0.00
    32   1    -0.21  -0.01   0.00     0.17  -0.02   0.17     0.08   0.00   0.00
    33   1     0.00   0.00   0.11     0.00   0.00  -0.17     0.01   0.00   0.34
    34   1     0.00   0.00   0.11     0.00   0.00  -0.17    -0.01   0.00   0.34
    35   1     0.00   0.00  -0.11     0.00   0.00  -0.17    -0.01   0.00  -0.34
    36   1     0.00   0.00  -0.11     0.00   0.00  -0.17     0.01   0.00  -0.34
                    37                     38                     39
                     A                      A                      A
 Frequencies --   362.0258               370.1971               456.5081
 Red. masses --     5.8798                 9.3356                 1.3138
 Frc consts  --     0.4540                 0.7538                 0.1613
 IR Inten    --     9.0233                52.4039                95.7159
 Raman Activ --     0.0000                 0.0000                 0.0000
 Depolar (P) --     0.0000                 0.1042                 0.7496
 Depolar (U) --     0.0000                 0.1888                 0.8569
  Atom  AN      X      Y      Z        X      Y      Z        X      Y      Z
     1   6    -0.06   0.00   0.00     0.00  -0.21   0.00     0.02   0.00   0.00
     2   6     0.02   0.00   0.00     0.01  -0.28   0.00     0.00   0.00   0.00
     3   6    -0.16   0.00   0.00     0.01  -0.09   0.00     0.02   0.00   0.00
     4   6    -0.22  -0.01   0.00     0.00   0.03   0.00     0.03   0.00   0.00
     5   1     0.05   0.10   0.00     0.01  -0.28   0.00    -0.01  -0.02   0.00
     6   1     0.06  -0.05   0.00     0.01  -0.29   0.00    -0.01   0.01   0.00
     7   1     0.06  -0.05   0.00     0.01  -0.29   0.00    -0.01   0.01   0.00
     8   1    -0.21  -0.01   0.00    -0.14   0.07   0.00     0.03   0.00   0.00
     9   1    -0.22  -0.01   0.00     0.06   0.08   0.00     0.03   0.00   0.00
    10   1    -0.22  -0.01   0.00     0.06   0.08   0.00     0.03   0.00   0.00
    11   8    -0.04   0.00   0.00    -0.01  -0.15  -0.02     0.00   0.00   0.00
    12   8    -0.04   0.00   0.00    -0.01  -0.15   0.02     0.00   0.00   0.00
    13   8    -0.12   0.01  -0.02     0.01  -0.06   0.00     0.01   0.00   0.01
    14   8    -0.12   0.01   0.02     0.01  -0.06   0.00     0.01   0.00  -0.01
    15   8     0.06   0.00   0.00     0.00  -0.01   0.00     0.08   0.00   0.00
    16  45     0.10   0.00   0.00     0.00   0.14   0.00    -0.02   0.00   0.00
    17  45     0.10   0.00   0.00     0.00   0.14   0.00    -0.02   0.00   0.00
    18   8    -0.04   0.00   0.00    -0.01  -0.15   0.02     0.00   0.00   0.00
    19   8    -0.12   0.01   0.02     0.01  -0.06   0.00     0.01   0.00  -0.01
    20   6    -0.16   0.00   0.00     0.01  -0.09   0.00     0.02   0.00   0.00
    21   8    -0.04   0.00   0.00    -0.01  -0.15  -0.02     0.00   0.00   0.00
    22   8    -0.12   0.01  -0.02     0.01  -0.06   0.00     0.01   0.00   0.01
    23   8     0.06   0.00   0.00     0.00  -0.01   0.00     0.08   0.00   0.00
    24   6    -0.06   0.00   0.00     0.00  -0.21   0.00     0.02   0.00   0.00
    25   6    -0.22  -0.01   0.00     0.00   0.03   0.00     0.03   0.00   0.00
    26   6     0.02   0.00   0.00     0.01  -0.28   0.00     0.00   0.00   0.00
    27   1     0.05   0.10   0.00     0.01  -0.28   0.00    -0.01  -0.02   0.00
    28   1     0.06  -0.05   0.00     0.01  -0.29   0.00    -0.01   0.01   0.00
    29   1     0.06  -0.05   0.00     0.01  -0.29   0.00    -0.01   0.01   0.00
    30   1    -0.21  -0.01   0.00    -0.14   0.07   0.00     0.03   0.00   0.00
    31   1    -0.22  -0.01   0.00     0.06   0.08   0.00     0.03   0.00   0.00
    32   1    -0.22  -0.01   0.00     0.06   0.08   0.00     0.03   0.00   0.00
    33   1    -0.13   0.00  -0.29     0.00   0.05   0.00    -0.21   0.00  -0.45
    34   1    -0.13   0.00   0.29     0.00   0.05   0.00    -0.21   0.00   0.45
    35   1    -0.13   0.00  -0.29     0.00   0.05   0.00    -0.21   0.00  -0.45
    36   1    -0.13   0.00   0.29     0.00   0.05   0.00    -0.21   0.00   0.45
                    40                     41                     42
                     A                      A                      A
 Frequencies --   460.9985               553.7052               555.0637
 Red. masses --     1.3003                 4.9720                 5.1948
 Frc consts  --     0.1628                 0.8981                 0.9430
 IR Inten    --     0.0000                 0.0000                 0.0065
 Raman Activ --     1.8045                 0.5759                 0.0000
 Depolar (P) --     0.7500                 0.7500                 0.6286
 Depolar (U) --     0.8571                 0.8571                 0.7720
  Atom  AN      X      Y      Z        X      Y      Z        X      Y      Z
     1   6     0.00   0.00   0.00     0.00   0.00   0.11     0.00   0.00   0.08
     2   6     0.00   0.00   0.00     0.00   0.00  -0.07     0.00   0.00  -0.04
     3   6     0.00   0.00   0.02     0.00   0.00   0.00     0.00   0.00  -0.09
     4   6     0.00   0.00  -0.01     0.00   0.00   0.00     0.00   0.00   0.05
     5   1     0.00   0.00   0.00     0.00   0.00  -0.21     0.00   0.00  -0.14
     6   1     0.00   0.00   0.00     0.02   0.34  -0.23     0.01   0.22  -0.15
     7   1     0.00   0.00   0.00    -0.02  -0.34  -0.23    -0.01  -0.22  -0.15
     8   1     0.00   0.00  -0.03     0.00   0.00   0.00     0.00   0.00   0.15
     9   1     0.04   0.00  -0.03     0.00   0.00   0.00    -0.24   0.01   0.16
    10   1    -0.04   0.00  -0.03     0.00   0.00   0.00     0.24  -0.01   0.16
    11   8    -0.01   0.00   0.00     0.00   0.23   0.00     0.00   0.17  -0.02
    12   8     0.01   0.00   0.00     0.00  -0.23   0.00     0.00  -0.17  -0.02
    13   8     0.02   0.00   0.01     0.00   0.00   0.00    -0.18   0.00   0.02
    14   8     0.02   0.00  -0.01     0.00   0.00   0.00     0.18   0.00   0.02
    15   8    -0.08   0.00   0.00     0.00   0.00   0.00     0.00   0.00   0.00
    16  45     0.01   0.00   0.00     0.00  -0.04   0.00     0.00   0.00   0.00
    17  45    -0.01   0.00   0.00     0.00   0.04   0.00     0.00   0.00   0.00
    18   8    -0.01   0.00   0.00     0.00   0.23   0.00     0.00  -0.17  -0.02
    19   8    -0.02   0.00   0.01     0.00   0.00   0.00     0.18   0.00   0.02
    20   6     0.00   0.00  -0.02     0.00   0.00   0.00     0.00   0.00  -0.09
    21   8     0.01   0.00   0.00     0.00  -0.23   0.00     0.00   0.17  -0.02
    22   8    -0.02   0.00  -0.01     0.00   0.00   0.00    -0.18   0.00   0.02
    23   8     0.08   0.00   0.00     0.00   0.00   0.00     0.00   0.00   0.00
    24   6     0.00   0.00   0.00     0.00   0.00  -0.11     0.00   0.00   0.08
    25   6     0.00   0.00   0.01     0.00   0.00   0.00     0.00   0.00   0.05
    26   6     0.00   0.00   0.00     0.00   0.00   0.07     0.00   0.00  -0.04
    27   1     0.00   0.00   0.00     0.00   0.00   0.21     0.00   0.00  -0.14
    28   1     0.00   0.00   0.00    -0.02  -0.34   0.23     0.01   0.22  -0.15
    29   1     0.00   0.00   0.00     0.02   0.34   0.23    -0.01  -0.22  -0.15
    30   1     0.00   0.00   0.03     0.00   0.00   0.00     0.00   0.00   0.15
    31   1    -0.04   0.00   0.03     0.00   0.00   0.00    -0.24   0.01   0.16
    32   1     0.04   0.00   0.03     0.00   0.00   0.00     0.24  -0.01   0.16
    33   1    -0.21   0.00  -0.45     0.00   0.00   0.00     0.00   0.00   0.00
    34   1    -0.21   0.00   0.45     0.00   0.00   0.00     0.00   0.00   0.00
    35   1     0.21   0.00   0.45     0.00   0.00   0.00     0.00   0.00   0.00
    36   1     0.21   0.00  -0.45     0.00   0.00   0.00     0.00   0.00   0.00
                    43                     44                     45
                     A                      A                      A
 Frequencies --   556.1650               561.5198               562.0281
 Red. masses --     4.9035                 3.3577                 5.3463
 Frc consts  --     0.8936                 0.6238                 0.9950
 IR Inten    --     0.0000                 0.0000                 3.1295
 Raman Activ --     0.8051                 0.0303                 0.0000
 Depolar (P) --     0.7500                 0.3042                 0.1681
 Depolar (U) --     0.8571                 0.4665                 0.2879
  Atom  AN      X      Y      Z        X      Y      Z        X      Y      Z
     1   6     0.00   0.00   0.00    -0.19   0.00   0.00     0.00   0.00  -0.08
     2   6     0.00   0.00   0.00    -0.01   0.01   0.00     0.00   0.00   0.04
     3   6     0.00   0.00   0.11     0.00   0.21   0.00     0.00   0.00  -0.08
     4   6     0.00   0.00  -0.06     0.01   0.01   0.00     0.00   0.00   0.04
     5   1     0.00   0.00   0.00     0.10   0.32   0.00     0.00   0.00   0.15
     6   1     0.00   0.00   0.00     0.13  -0.13  -0.01    -0.01  -0.24   0.16
     7   1     0.00   0.00   0.00     0.13  -0.13   0.01     0.01   0.24   0.16
     8   1     0.00   0.00  -0.20     0.35  -0.10   0.00     0.00   0.00   0.14
     9   1     0.33  -0.02  -0.22    -0.15  -0.14  -0.01    -0.22   0.01   0.15
    10   1    -0.33   0.02  -0.22    -0.15  -0.14   0.01     0.22  -0.01   0.15
    11   8     0.01   0.00   0.00     0.07  -0.01   0.00     0.00  -0.18   0.02
    12   8    -0.01   0.00   0.00     0.07  -0.01   0.00     0.00   0.18   0.02
    13   8     0.23   0.00  -0.01    -0.01  -0.07   0.00    -0.17   0.00   0.02
    14   8     0.23   0.00   0.01     0.01   0.07   0.00     0.17   0.00   0.02
    15   8     0.02   0.00   0.00     0.00   0.00   0.00     0.00   0.00   0.01
    16  45    -0.04   0.00   0.00     0.00   0.00   0.00     0.00   0.00  -0.02
    17  45     0.04   0.00   0.00     0.00   0.00   0.00     0.00   0.00  -0.02
    18   8     0.01   0.00   0.00    -0.07   0.01   0.00     0.00   0.18   0.02
    19   8    -0.23   0.00  -0.01    -0.01  -0.07   0.00     0.17   0.00   0.02
    20   6     0.00   0.00  -0.11     0.00  -0.21   0.00     0.00   0.00  -0.08
    21   8    -0.01   0.00   0.00    -0.07   0.01   0.00     0.00  -0.18   0.02
    22   8    -0.23   0.00   0.01     0.01   0.07   0.00    -0.17   0.00   0.02
    23   8    -0.02   0.00   0.00     0.00   0.00   0.00     0.00   0.00   0.01
    24   6     0.00   0.00   0.00     0.19   0.00   0.00     0.00   0.00  -0.08
    25   6     0.00   0.00   0.06    -0.01  -0.01   0.00     0.00   0.00   0.04
    26   6     0.00   0.00   0.00     0.01  -0.01   0.00     0.00   0.00   0.04
    27   1     0.00   0.00   0.00    -0.10  -0.32   0.00     0.00   0.00   0.15
    28   1     0.00   0.00   0.00    -0.13   0.13   0.01    -0.01  -0.24   0.16
    29   1     0.00   0.00   0.00    -0.13   0.13  -0.01     0.01   0.24   0.16
    30   1     0.00   0.00   0.20    -0.35   0.10   0.00     0.00   0.00   0.14
    31   1    -0.33   0.02   0.22     0.15   0.14   0.01    -0.22   0.01   0.15
    32   1     0.33  -0.02   0.22     0.15   0.14  -0.01     0.22  -0.01   0.15
    33   1     0.04   0.00   0.10     0.00   0.00   0.00     0.00   0.00   0.01
    34   1     0.04   0.00  -0.10     0.00   0.00   0.00     0.00   0.00   0.01
    35   1    -0.04   0.00  -0.10     0.00   0.00   0.00     0.00   0.00   0.01
    36   1    -0.04   0.00   0.10     0.00   0.00   0.00     0.00   0.00   0.01
                    46                     47                     48
                     A                      A                      A
 Frequencies --   573.4272               577.1588               578.3518
 Red. masses --     3.5400                 3.6693                 3.6503
 Frc consts  --     0.6858                 0.7202                 0.7194
 IR Inten    --     0.0000                 5.0866                 5.2574
 Raman Activ --     4.6570                 0.0000                 0.0000
 Depolar (P) --     0.7499                 0.6248                 0.1933
 Depolar (U) --     0.8571                 0.7691                 0.3240
  Atom  AN      X      Y      Z        X      Y      Z        X      Y      Z
     1   6     0.21   0.00   0.00    -0.01   0.00   0.00     0.28   0.00   0.00
     2   6     0.01  -0.01   0.00     0.00  -0.01   0.00     0.02  -0.02   0.00
     3   6     0.00   0.19   0.00     0.00   0.28   0.00     0.00   0.01   0.00
     4   6     0.01   0.01   0.00     0.02   0.02   0.00    -0.01   0.00   0.00
     5   1    -0.10  -0.36   0.00     0.01   0.01   0.00    -0.13  -0.48   0.00
     6   1    -0.13   0.15   0.01     0.01  -0.02   0.00    -0.18   0.19   0.01
     7   1    -0.13   0.15  -0.01     0.01  -0.02   0.00    -0.18   0.19  -0.01
     8   1     0.32  -0.09   0.00     0.48  -0.13   0.00     0.01  -0.01   0.00
     9   1    -0.13  -0.12  -0.01    -0.19  -0.18  -0.01    -0.02  -0.01   0.00
    10   1    -0.13  -0.12   0.01    -0.19  -0.18   0.01    -0.02  -0.01   0.00
    11   8    -0.08   0.01  -0.01     0.00   0.00   0.00    -0.12   0.02  -0.01
    12   8    -0.08   0.01   0.01     0.00   0.00   0.00    -0.12   0.02   0.01
    13   8    -0.01  -0.08   0.00    -0.02  -0.12   0.01     0.00   0.00   0.00
    14   8     0.01   0.08   0.00    -0.02  -0.12  -0.01     0.00   0.00   0.00
    15   8     0.00   0.00   0.00     0.00   0.00   0.00     0.00   0.00   0.00
    16  45     0.00   0.00   0.00     0.00   0.01   0.00     0.01   0.00   0.00
    17  45     0.00   0.00   0.00     0.00   0.01   0.00     0.01   0.00   0.00
    18   8     0.08  -0.01  -0.01     0.00   0.00   0.00    -0.12   0.02   0.01
    19   8    -0.01  -0.08   0.00    -0.02  -0.12  -0.01     0.00   0.00   0.00
    20   6     0.00  -0.19   0.00     0.00   0.28   0.00     0.00   0.01   0.00
    21   8     0.08  -0.01   0.01     0.00   0.00   0.00    -0.12   0.02  -0.01
    22   8     0.01   0.08   0.00    -0.02  -0.12   0.01     0.00   0.00   0.00
    23   8     0.00   0.00   0.00     0.00   0.00   0.00     0.00   0.00   0.00
    24   6    -0.21   0.00   0.00    -0.01   0.00   0.00     0.28   0.00   0.00
    25   6    -0.01  -0.01   0.00     0.02   0.02   0.00    -0.01   0.00   0.00
    26   6    -0.01   0.01   0.00     0.00  -0.01   0.00     0.02  -0.02   0.00
    27   1     0.10   0.36   0.00     0.01   0.01   0.00    -0.13  -0.48   0.00
    28   1     0.13  -0.15  -0.01     0.01  -0.02   0.00    -0.18   0.19   0.01
    29   1     0.13  -0.15   0.01     0.01  -0.02   0.00    -0.18   0.19  -0.01
    30   1    -0.32   0.09   0.00     0.48  -0.13   0.00     0.01  -0.01   0.00
    31   1     0.13   0.12   0.01    -0.19  -0.18  -0.01    -0.02  -0.01   0.00
    32   1     0.13   0.12  -0.01    -0.19  -0.18   0.01    -0.02  -0.01   0.00
    33   1     0.00   0.00   0.00     0.00   0.00   0.01     0.01   0.00   0.02
    34   1     0.00   0.00   0.00     0.00   0.00  -0.01     0.01   0.00  -0.02
    35   1     0.00   0.00   0.00     0.00   0.00   0.01     0.01   0.00   0.02
    36   1     0.00   0.00   0.00     0.00   0.00  -0.01     0.01   0.00  -0.02
                    49                     50                     51
                     A                      A                      A
 Frequencies --   660.6282               660.8444               680.6447
 Red. masses --     9.1145                 9.0135                 8.4870
 Frc consts  --     2.3437                 2.3192                 2.3166
 IR Inten    --    76.6806                80.2481                 0.0000
 Raman Activ --     0.0000                 0.0000                 0.0818
 Depolar (P) --     0.0000                 0.7178                 0.4626
 Depolar (U) --     0.0000                 0.8357                 0.6326
  Atom  AN      X      Y      Z        X      Y      Z        X      Y      Z
     1   6    -0.05  -0.09   0.00     0.00  -0.01   0.00    -0.03  -0.05   0.00
     2   6     0.01  -0.26   0.00     0.00  -0.02   0.00     0.01  -0.18   0.00
     3   6     0.01   0.00   0.00    -0.09   0.05   0.00     0.05  -0.03   0.00
     4   6     0.02   0.00   0.00    -0.25  -0.01   0.00     0.20   0.01   0.00
     5   1     0.03  -0.20   0.00     0.00  -0.02   0.00     0.02  -0.16   0.00
     6   1     0.02  -0.29   0.00     0.00  -0.02   0.00     0.01  -0.20   0.00
     7   1     0.02  -0.29   0.00     0.00  -0.02   0.00     0.01  -0.20   0.00
     8   1     0.02   0.00   0.00    -0.20  -0.03   0.00     0.17   0.02   0.00
     9   1     0.02   0.00   0.00    -0.29  -0.02   0.00     0.22   0.01   0.00
    10   1     0.02   0.00   0.00    -0.29  -0.02   0.00     0.22   0.01   0.00
    11   8     0.01   0.24  -0.22     0.00   0.01  -0.01     0.01   0.16  -0.13
    12   8     0.01   0.24   0.22     0.00   0.01   0.01     0.01   0.16   0.13
    13   8    -0.01   0.00   0.01     0.23  -0.01  -0.22    -0.17   0.01   0.15
    14   8    -0.01   0.00  -0.01     0.23  -0.01   0.22     0.17  -0.01   0.15
    15   8     0.00   0.00   0.00     0.01   0.00   0.00     0.00   0.00   0.00
    16  45     0.00  -0.03   0.00    -0.03   0.00   0.00     0.00   0.00   0.00
    17  45     0.00  -0.03   0.00    -0.03   0.00   0.00     0.00   0.00   0.00
    18   8     0.01   0.24   0.22     0.00   0.01   0.01    -0.01  -0.16  -0.13
    19   8    -0.01   0.00  -0.01     0.23  -0.01   0.22    -0.17   0.01  -0.15
    20   6     0.01   0.00   0.00    -0.09   0.05   0.00    -0.05   0.03   0.00
    21   8     0.01   0.24  -0.22     0.00   0.01  -0.01    -0.01  -0.16   0.13
    22   8    -0.01   0.00   0.01     0.23  -0.01  -0.22     0.17  -0.01  -0.15
    23   8     0.00   0.00   0.00     0.01   0.00   0.00     0.00   0.00   0.00
    24   6    -0.05  -0.09   0.00     0.00  -0.01   0.00     0.03   0.05   0.00
    25   6     0.02   0.00   0.00    -0.25  -0.01   0.00    -0.20  -0.01   0.00
    26   6     0.01  -0.26   0.00     0.00  -0.02   0.00    -0.01   0.18   0.00
    27   1     0.03  -0.20   0.00     0.00  -0.02   0.00    -0.02   0.16   0.00
    28   1     0.02  -0.29   0.00     0.00  -0.02   0.00    -0.01   0.20   0.00
    29   1     0.02  -0.29   0.00     0.00  -0.02   0.00    -0.01   0.20   0.00
    30   1     0.02   0.00   0.00    -0.20  -0.03   0.00    -0.17  -0.02   0.00
    31   1     0.02   0.00   0.00    -0.29  -0.02   0.00    -0.22  -0.01   0.00
    32   1     0.02   0.00   0.00    -0.29  -0.02   0.00    -0.22  -0.01   0.00
    33   1     0.00   0.00   0.00    -0.02   0.00  -0.05     0.00   0.00   0.00
    34   1     0.00   0.00   0.00    -0.02   0.00   0.05     0.00   0.00   0.00
    35   1     0.00   0.00   0.00    -0.02   0.00  -0.05     0.00   0.00   0.00
    36   1     0.00   0.00   0.00    -0.02   0.00   0.05     0.00   0.00   0.00
                    52                     53                     54
                     A                      A                      A
 Frequencies --   689.0582               891.1275               891.7203
 Red. masses --     8.5070                 7.2644                 7.2897
 Frc consts  --     2.3798                 3.3988                 3.4152
 IR Inten    --     0.0000                 2.9868                 2.1269
 Raman Activ --     0.7933                 0.0000                 0.0000
 Depolar (P) --     0.0495                 0.2601                 0.7191
 Depolar (U) --     0.0943                 0.4128                 0.0000
  Atom  AN      X      Y      Z        X      Y      Z        X      Y      Z
     1   6     0.03   0.05   0.00     0.02  -0.14   0.00     0.00   0.00   0.00
     2   6    -0.01   0.20   0.00    -0.02   0.26   0.00     0.00   0.00   0.00
     3   6     0.04  -0.03   0.00     0.00   0.00   0.00     0.14   0.02   0.00
     4   6     0.18   0.01   0.00     0.00   0.00   0.00    -0.26  -0.02   0.00
     5   1    -0.02   0.18   0.00    -0.01   0.31   0.00     0.00   0.00   0.00
     6   1    -0.01   0.22   0.00     0.01   0.29  -0.01     0.00   0.00   0.00
     7   1    -0.01   0.22   0.00     0.01   0.29   0.01     0.00   0.00   0.00
     8   1     0.16   0.02   0.00     0.00   0.00   0.00    -0.31  -0.01   0.00
     9   1     0.20   0.01   0.00     0.00   0.00   0.00    -0.29   0.01   0.01
    10   1     0.20   0.01   0.00     0.00   0.00   0.00    -0.29   0.01  -0.01
    11   8    -0.01  -0.17   0.14     0.00  -0.10  -0.24     0.00   0.00   0.00
    12   8    -0.01  -0.17  -0.14     0.00  -0.10   0.24     0.00   0.00   0.00
    13   8    -0.16   0.01   0.13     0.00   0.00   0.00     0.10   0.00   0.25
    14   8     0.16  -0.01   0.13     0.00   0.00   0.00     0.10   0.00  -0.25
    15   8     0.00   0.00   0.00     0.00   0.00   0.00     0.00   0.00   0.00
    16  45     0.00   0.00  -0.03     0.00   0.01   0.00    -0.01   0.00   0.00
    17  45     0.00   0.00   0.03     0.00   0.01   0.00    -0.01   0.00   0.00
    18   8     0.01   0.17   0.14     0.00  -0.10   0.24     0.00   0.00   0.00
    19   8    -0.16   0.01  -0.13     0.00   0.00   0.00     0.10   0.00  -0.25
    20   6    -0.04   0.03   0.00     0.00   0.00   0.00     0.14   0.02   0.00
    21   8     0.01   0.17  -0.14     0.00  -0.10  -0.24     0.00   0.00   0.00
    22   8     0.16  -0.01  -0.13     0.00   0.00   0.00     0.10   0.00   0.25
    23   8     0.00   0.00   0.00     0.00   0.00   0.00     0.00   0.00   0.00
    24   6    -0.03  -0.05   0.00     0.02  -0.14   0.00     0.00   0.00   0.00
    25   6    -0.18  -0.01   0.00     0.00   0.00   0.00    -0.26  -0.02   0.00
    26   6     0.01  -0.20   0.00    -0.02   0.26   0.00     0.00   0.00   0.00
    27   1     0.02  -0.18   0.00    -0.01   0.31   0.00     0.00   0.00   0.00
    28   1     0.01  -0.22   0.00     0.01   0.29  -0.01     0.00   0.00   0.00
    29   1     0.01  -0.22   0.00     0.01   0.29   0.01     0.00   0.00   0.00
    30   1    -0.16  -0.02   0.00     0.00   0.00   0.00    -0.31  -0.01   0.00
    31   1    -0.20  -0.01   0.00     0.00   0.00   0.00    -0.29   0.01   0.01
    32   1    -0.20  -0.01   0.00     0.00   0.00   0.00    -0.29   0.01  -0.01
    33   1     0.00   0.00  -0.01     0.00   0.01   0.00     0.00   0.00   0.00
    34   1     0.00   0.00  -0.01     0.00   0.01   0.00     0.00   0.00   0.00
    35   1     0.00   0.00   0.01     0.00   0.01   0.00     0.00   0.00   0.00
    36   1     0.00   0.00   0.01     0.00   0.01   0.00     0.00   0.00   0.00
                    55                     56                     57
                     A                      A                      A
 Frequencies --   900.7821               903.5345              1014.1410
 Red. masses --     7.6024                 7.7471                 1.5439
 Frc consts  --     3.6345                 3.7263                 0.9356
 IR Inten    --     0.0000                 0.0000                 0.0000
 Raman Activ --    28.6891                47.4701                 5.7892
 Depolar (P) --     0.7309                 0.0170                 0.7500
 Depolar (U) --     0.8445                 0.0335                 0.8571
  Atom  AN      X      Y      Z        X      Y      Z        X      Y      Z
     1   6    -0.02   0.12   0.00    -0.01   0.09   0.00     0.00   0.00  -0.02
     2   6     0.01  -0.20   0.00     0.01  -0.16   0.00     0.00   0.00  -0.12
     3   6    -0.09  -0.01   0.00     0.12   0.02   0.00     0.00   0.00   0.00
     4   6     0.16   0.01   0.00    -0.20  -0.01   0.00     0.00   0.00   0.00
     5   1     0.01  -0.24   0.00     0.01  -0.19   0.00     0.00   0.00   0.19
     6   1    -0.01  -0.22   0.01     0.00  -0.18   0.01    -0.04  -0.46   0.11
     7   1    -0.01  -0.22  -0.01     0.00  -0.18  -0.01     0.04   0.46   0.11
     8   1     0.19   0.01   0.00    -0.23  -0.01   0.00     0.00   0.00   0.00
     9   1     0.18   0.00  -0.01    -0.22   0.01   0.01     0.01   0.00   0.00
    10   1     0.18   0.00   0.01    -0.22   0.01  -0.01    -0.01   0.00   0.00
    11   8     0.00   0.07   0.20     0.00   0.06   0.17     0.00   0.04   0.04
    12   8     0.00   0.07  -0.20     0.00   0.06  -0.17     0.00  -0.04   0.04
    13   8    -0.06   0.00  -0.16     0.08   0.00   0.21     0.00   0.00   0.00
    14   8     0.06   0.00  -0.16    -0.08   0.00   0.21     0.00   0.00   0.00
    15   8     0.00   0.00   0.00     0.00   0.00   0.00     0.00   0.00   0.00
    16  45     0.00   0.00   0.00     0.00   0.00  -0.01     0.00   0.00   0.00
    17  45     0.00   0.00   0.00     0.00   0.00   0.01     0.00   0.00   0.00
    18   8     0.00  -0.07   0.20     0.00  -0.06   0.17     0.00   0.04  -0.04
    19   8    -0.06   0.00   0.16     0.08   0.00  -0.21     0.00   0.00   0.00
    20   6     0.09   0.01   0.00    -0.12  -0.02   0.00     0.00   0.00   0.00
    21   8     0.00  -0.07  -0.20     0.00  -0.06  -0.17     0.00  -0.04  -0.04
    22   8     0.06   0.00   0.16    -0.08   0.00  -0.21     0.00   0.00   0.00
    23   8     0.00   0.00   0.00     0.00   0.00   0.00     0.00   0.00   0.00
    24   6     0.02  -0.12   0.00     0.01  -0.09   0.00     0.00   0.00   0.02
    25   6    -0.16  -0.01   0.00     0.20   0.01   0.00     0.00   0.00   0.00
    26   6    -0.01   0.20   0.00    -0.01   0.16   0.00     0.00   0.00   0.12
    27   1    -0.01   0.24   0.00    -0.01   0.19   0.00     0.00   0.00  -0.19
    28   1     0.01   0.22  -0.01     0.00   0.18  -0.01     0.04   0.46  -0.11
    29   1     0.01   0.22   0.01     0.00   0.18   0.01    -0.04  -0.46  -0.11
    30   1    -0.19  -0.01   0.00     0.23   0.01   0.00     0.00   0.00   0.00
    31   1    -0.18   0.00   0.01     0.22  -0.01  -0.01    -0.01   0.00   0.00
    32   1    -0.18   0.00  -0.01     0.22  -0.01   0.01     0.01   0.00   0.00
    33   1     0.00   0.00   0.00     0.00   0.00   0.00     0.00   0.00   0.00
    34   1     0.00   0.00   0.00     0.00   0.00   0.00     0.00   0.00   0.00
    35   1     0.00   0.00   0.00     0.00   0.00   0.00     0.00   0.00   0.00
    36   1     0.00   0.00   0.00     0.00   0.00   0.00     0.00   0.00   0.00
                    58                     59                     60
                     A                      A                      A
 Frequencies --  1014.2185              1015.9716              1016.4334
 Red. masses --     1.5436                 1.5271                 1.5187
 Frc consts  --     0.9355                 0.9287                 0.9244
 IR Inten    --     0.0000                 0.0032                10.8680
 Raman Activ --     5.8769                 0.0000                 0.0000
 Depolar (P) --     0.7500                 0.7487                 0.7476
 Depolar (U) --     0.8571                 0.8563                 0.8556
  Atom  AN      X      Y      Z        X      Y      Z        X      Y      Z
     1   6     0.00   0.00   0.00     0.00   0.00   0.01     0.00   0.00   0.01
     2   6     0.00   0.00   0.00     0.00   0.00   0.09     0.00   0.00   0.08
     3   6     0.00   0.00  -0.02     0.00   0.00  -0.01     0.00   0.00   0.01
     4   6     0.00   0.00  -0.12     0.00   0.00  -0.08     0.00   0.00   0.09
     5   1     0.00   0.00   0.00     0.00   0.00  -0.14     0.00   0.00  -0.13
     6   1     0.00  -0.01   0.00     0.03   0.34  -0.08     0.03   0.31  -0.07
     7   1     0.00   0.01   0.00    -0.03  -0.34  -0.08    -0.03  -0.31  -0.07
     8   1     0.00   0.00   0.19     0.00   0.00   0.13     0.00   0.00  -0.14
     9   1    -0.46   0.04   0.11    -0.31   0.03   0.07     0.34  -0.03  -0.08
    10   1     0.46  -0.04   0.11     0.31  -0.03   0.07    -0.34   0.03  -0.08
    11   8     0.00   0.00   0.00     0.00  -0.03  -0.03     0.00  -0.03  -0.02
    12   8     0.00   0.00   0.00     0.00   0.03  -0.03     0.00   0.03  -0.02
    13   8     0.04   0.00   0.04     0.03   0.00   0.02    -0.03   0.00  -0.03
    14   8     0.04   0.00  -0.04    -0.03   0.00   0.02     0.03   0.00  -0.03
    15   8     0.00   0.00   0.00     0.00   0.00   0.00     0.00   0.00   0.00
    16  45     0.00   0.00   0.00     0.00   0.00   0.00     0.00   0.00   0.00
    17  45     0.00   0.00   0.00     0.00   0.00   0.00     0.00   0.00   0.00
    18   8     0.00   0.00   0.00     0.00   0.03  -0.03     0.00   0.03  -0.02
    19   8    -0.04   0.00   0.04    -0.03   0.00   0.02     0.03   0.00  -0.03
    20   6     0.00   0.00   0.02     0.00   0.00  -0.01     0.00   0.00   0.01
    21   8     0.00   0.00   0.00     0.00  -0.03  -0.03     0.00  -0.03  -0.02
    22   8    -0.04   0.00  -0.04     0.03   0.00   0.02    -0.03   0.00  -0.03
    23   8     0.00   0.00   0.00     0.00   0.00   0.00     0.00   0.00   0.00
    24   6     0.00   0.00   0.00     0.00   0.00   0.01     0.00   0.00   0.01
    25   6     0.00   0.00   0.12     0.00   0.00  -0.08     0.00   0.00   0.09
    26   6     0.00   0.00   0.00     0.00   0.00   0.09     0.00   0.00   0.08
    27   1     0.00   0.00   0.00     0.00   0.00  -0.14     0.00   0.00  -0.13
    28   1     0.00   0.01   0.00     0.03   0.34  -0.08     0.03   0.31  -0.07
    29   1     0.00  -0.01   0.00    -0.03  -0.34  -0.08    -0.03  -0.31  -0.07
    30   1     0.00   0.00  -0.19     0.00   0.00   0.13     0.00   0.00  -0.14
    31   1     0.46  -0.04  -0.11    -0.31   0.03   0.07     0.34  -0.03  -0.08
    32   1    -0.46   0.04  -0.11     0.31  -0.03   0.07    -0.34   0.03  -0.08
    33   1     0.00   0.00   0.00     0.00   0.00   0.00     0.00   0.00   0.00
    34   1     0.00   0.00   0.00     0.00   0.00   0.00     0.00   0.00   0.00
    35   1     0.00   0.00   0.00     0.00   0.00   0.00     0.00   0.00   0.00
    36   1     0.00   0.00   0.00     0.00   0.00   0.00     0.00   0.00   0.00
                    61                     62                     63
                     A                      A                      A
 Frequencies --  1042.8555              1044.2563              1044.3474
 Red. masses --     1.6037                 1.6010                 1.6029
 Frc consts  --     1.0276                 1.0286                 1.0300
 IR Inten    --     0.0000                16.6366                15.9094
 Raman Activ --     0.6587                 0.0000                 0.0000
 Depolar (P) --     0.0746                 0.7493                 0.7266
 Depolar (U) --     0.1389                 0.8567                 0.8417
  Atom  AN      X      Y      Z        X      Y      Z        X      Y      Z
     1   6     0.08   0.00   0.00     0.00   0.00   0.00     0.12   0.01   0.00
     2   6    -0.08  -0.01   0.00     0.00   0.00   0.00    -0.11  -0.01   0.00
     3   6     0.00  -0.08   0.00     0.01  -0.12   0.00     0.00   0.00   0.00
     4   6    -0.01   0.08   0.00    -0.01   0.11   0.00     0.00   0.00   0.00
     5   1     0.05   0.35   0.00     0.00   0.00   0.00     0.07   0.51   0.00
     6   1     0.14  -0.17  -0.04     0.00   0.00   0.00     0.20  -0.24  -0.06
     7   1     0.14  -0.17   0.04     0.00   0.00   0.00     0.20  -0.24   0.06
     8   1     0.37  -0.05   0.00     0.51  -0.07   0.00     0.00   0.00   0.00
     9   1    -0.18  -0.15  -0.04    -0.25  -0.20  -0.06     0.00   0.00   0.00
    10   1    -0.18  -0.15   0.04    -0.25  -0.20   0.06     0.00   0.00   0.00
    11   8    -0.01   0.00   0.00     0.00   0.00   0.00    -0.02   0.00   0.00
    12   8    -0.01   0.00   0.00     0.00   0.00   0.00    -0.02   0.00   0.00
    13   8     0.00   0.01   0.00     0.00   0.02   0.00     0.00   0.00   0.00
    14   8     0.00  -0.01   0.00     0.00   0.02   0.00     0.00   0.00   0.00
    15   8     0.00   0.00   0.00     0.00   0.00   0.00     0.00   0.00   0.00
    16  45     0.00   0.00   0.00     0.00   0.00   0.00     0.00   0.00   0.00
    17  45     0.00   0.00   0.00     0.00   0.00   0.00     0.00   0.00   0.00
    18   8     0.01   0.00   0.00     0.00   0.00   0.00    -0.02   0.00   0.00
    19   8     0.00   0.01   0.00     0.00   0.02   0.00     0.00   0.00   0.00
    20   6     0.00   0.08   0.00     0.01  -0.12   0.00     0.00   0.00   0.00
    21   8     0.01   0.00   0.00     0.00   0.00   0.00    -0.02   0.00   0.00
    22   8     0.00  -0.01   0.00     0.00   0.02   0.00     0.00   0.00   0.00
    23   8     0.00   0.00   0.00     0.00   0.00   0.00     0.00   0.00   0.00
    24   6    -0.08   0.00   0.00     0.00   0.00   0.00     0.12   0.01   0.00
    25   6     0.01  -0.08   0.00    -0.01   0.11   0.00     0.00   0.00   0.00
    26   6     0.08   0.01   0.00     0.00   0.00   0.00    -0.11  -0.01   0.00
    27   1    -0.05  -0.35   0.00     0.00   0.00   0.00     0.07   0.51   0.00
    28   1    -0.14   0.17   0.04     0.00   0.00   0.00     0.20  -0.24  -0.06
    29   1    -0.14   0.17  -0.04     0.00   0.00   0.00     0.20  -0.24   0.06
    30   1    -0.37   0.05   0.00     0.51  -0.07   0.00     0.00   0.00   0.00
    31   1     0.18   0.15   0.04    -0.25  -0.20  -0.06     0.00   0.00   0.00
    32   1     0.18   0.15  -0.04    -0.25  -0.20   0.06     0.00   0.00   0.00
    33   1     0.00   0.00   0.00     0.00   0.00   0.00     0.00   0.00   0.00
    34   1     0.00   0.00   0.00     0.00   0.00   0.00     0.00   0.00   0.00
    35   1     0.00   0.00   0.00     0.00   0.00   0.00     0.00   0.00   0.00
    36   1     0.00   0.00   0.00     0.00   0.00   0.00     0.00   0.00   0.00
                    64                     65                     66
                     A                      A                      A
 Frequencies --  1044.5449              1336.6112              1337.3797
 Red. masses --     1.6019                 6.3411                 6.2459
 Frc consts  --     1.0298                 6.6746                 6.5819
 IR Inten    --     0.0000                 0.0000               308.7359
 Raman Activ --     4.8092                 1.5815                 0.0000
 Depolar (P) --     0.7499                 0.6863                 0.6718
 Depolar (U) --     0.8571                 0.8140                 0.8037
  Atom  AN      X      Y      Z        X      Y      Z        X      Y      Z
     1   6     0.08   0.00   0.00     0.00   0.31   0.00    -0.01   0.42   0.00
     2   6    -0.08  -0.01   0.00     0.01  -0.05   0.00     0.01  -0.07   0.00
     3   6     0.00   0.08   0.00    -0.28   0.00   0.00     0.00   0.00   0.00
     4   6     0.01  -0.08   0.00     0.05   0.01   0.00     0.00   0.00   0.00
     5   1     0.05   0.37   0.00    -0.02  -0.17   0.00    -0.03  -0.23   0.00
     6   1     0.15  -0.18  -0.04    -0.03  -0.23   0.08    -0.03  -0.31   0.11
     7   1     0.15  -0.18   0.04    -0.03  -0.23  -0.08    -0.03  -0.31  -0.11
     8   1    -0.35   0.05   0.00     0.15  -0.02   0.00     0.00   0.00   0.00
     9   1     0.17   0.14   0.04     0.21  -0.02  -0.07     0.00   0.00   0.00
    10   1     0.17   0.14  -0.04     0.21  -0.02   0.07     0.00   0.00   0.00
    11   8    -0.01   0.00   0.00     0.00  -0.08  -0.08     0.00  -0.10  -0.11
    12   8    -0.01   0.00   0.00     0.00  -0.08   0.08     0.00  -0.10   0.11
    13   8     0.00  -0.01   0.00     0.07   0.00   0.07     0.00   0.00   0.00
    14   8     0.00   0.01   0.00    -0.07   0.00   0.07     0.00   0.00   0.00
    15   8     0.00   0.00   0.00     0.00   0.00   0.00     0.00   0.00   0.00
    16  45     0.00   0.00   0.00     0.00   0.00   0.00     0.00   0.00   0.00
    17  45     0.00   0.00   0.00     0.00   0.00   0.00     0.00   0.00   0.00
    18   8     0.01   0.00   0.00     0.00   0.08  -0.08     0.00  -0.10   0.11
    19   8     0.00  -0.01   0.00     0.07   0.00  -0.07     0.00   0.00   0.00
    20   6     0.00  -0.08   0.00     0.28   0.00   0.00     0.00   0.00   0.00
    21   8     0.01   0.00   0.00     0.00   0.08   0.08     0.00  -0.10  -0.11
    22   8     0.00   0.01   0.00    -0.07   0.00  -0.07     0.00   0.00   0.00
    23   8     0.00   0.00   0.00     0.00   0.00   0.00     0.00   0.00   0.00
    24   6    -0.08   0.00   0.00     0.00  -0.31   0.00    -0.01   0.42   0.00
    25   6    -0.01   0.08   0.00    -0.05  -0.01   0.00     0.00   0.00   0.00
    26   6     0.08   0.01   0.00    -0.01   0.05   0.00     0.01  -0.07   0.00
    27   1    -0.05  -0.37   0.00     0.02   0.17   0.00    -0.03  -0.23   0.00
    28   1    -0.15   0.18   0.04     0.03   0.23  -0.08    -0.03  -0.31   0.11
    29   1    -0.15   0.18  -0.04     0.03   0.23   0.08    -0.03  -0.31  -0.11
    30   1     0.35  -0.05   0.00    -0.15   0.02   0.00     0.00   0.00   0.00
    31   1    -0.17  -0.14  -0.04    -0.21   0.02   0.07     0.00   0.00   0.00
    32   1    -0.17  -0.14   0.04    -0.21   0.02  -0.07     0.00   0.00   0.00
    33   1     0.00   0.00   0.00     0.00   0.00   0.01     0.00   0.00   0.00
    34   1     0.00   0.00   0.00     0.00   0.00   0.01     0.00   0.00   0.00
    35   1     0.00   0.00   0.00     0.00   0.00  -0.01     0.00   0.00   0.00
    36   1     0.00   0.00   0.00     0.00   0.00  -0.01     0.00   0.00   0.00
                    67                     68                     69
                     A                      A                      A
 Frequencies --  1338.3943              1348.4251              1378.8898
 Red. masses --     6.1625                 5.1225                 1.3073
 Frc consts  --     6.5039                 5.4877                 1.4645
 IR Inten    --   299.6952                 0.0000                 0.0000
 Raman Activ --     0.0000                11.0465                12.0971
 Depolar (P) --     0.7452                 0.3847                 0.7439
 Depolar (U) --     0.8540                 0.5557                 0.8532
  Atom  AN      X      Y      Z        X      Y      Z        X      Y      Z
     1   6     0.00   0.00   0.00     0.00  -0.25   0.00     0.00   0.03   0.00
     2   6     0.00   0.00   0.00    -0.01   0.03   0.00     0.01  -0.09   0.00
     3   6     0.41   0.01   0.00    -0.27   0.00   0.00    -0.02   0.00   0.00
     4   6    -0.07  -0.01   0.00     0.03   0.01   0.00     0.06   0.01   0.00
     5   1     0.00   0.00   0.00     0.03   0.17   0.00     0.13   0.33   0.00
     6   1     0.00   0.00   0.00     0.02   0.23  -0.09    -0.11   0.30  -0.10
     7   1     0.00   0.00   0.00     0.02   0.23   0.09    -0.11   0.30   0.10
     8   1    -0.23   0.03   0.00     0.19  -0.04   0.00    -0.21   0.08   0.00
     9   1    -0.31   0.03   0.11     0.25  -0.02  -0.09    -0.19  -0.07   0.06
    10   1    -0.31   0.03  -0.11     0.25  -0.02   0.09    -0.19  -0.07  -0.06
    11   8     0.00   0.00   0.00     0.00   0.06   0.06     0.00  -0.01  -0.01
    12   8     0.00   0.00   0.00     0.00   0.06  -0.06     0.00  -0.01   0.01
    13   8    -0.10   0.00  -0.11     0.07   0.00   0.07     0.00   0.00   0.00
    14   8    -0.10   0.00   0.11    -0.07   0.00   0.07     0.00   0.00   0.00
    15   8     0.00   0.00   0.00     0.00   0.00   0.00     0.00   0.00   0.00
    16  45     0.00   0.00   0.00     0.00   0.00   0.00     0.00   0.00   0.00
    17  45     0.00   0.00   0.00     0.00   0.00   0.00     0.00   0.00   0.00
    18   8     0.00   0.00   0.00     0.00  -0.06   0.06     0.00   0.01  -0.01
    19   8    -0.10   0.00   0.11     0.07   0.00  -0.07     0.00   0.00   0.00
    20   6     0.41   0.01   0.00     0.27   0.00   0.00     0.02   0.00   0.00
    21   8     0.00   0.00   0.00     0.00  -0.06  -0.06     0.00   0.01   0.01
    22   8    -0.10   0.00  -0.11    -0.07   0.00  -0.07     0.00   0.00   0.00
    23   8     0.00   0.00   0.00     0.00   0.00   0.00     0.00   0.00   0.00
    24   6     0.00   0.00   0.00     0.00   0.25   0.00     0.00  -0.03   0.00
    25   6    -0.07  -0.01   0.00    -0.03  -0.01   0.00    -0.06  -0.01   0.00
    26   6     0.00   0.00   0.00     0.01  -0.03   0.00    -0.01   0.09   0.00
    27   1     0.00   0.00   0.00    -0.03  -0.17   0.00    -0.13  -0.33   0.00
    28   1     0.00   0.00   0.00    -0.02  -0.23   0.09     0.11  -0.30   0.10
    29   1     0.00   0.00   0.00    -0.02  -0.23  -0.09     0.11  -0.30  -0.10
    30   1    -0.23   0.03   0.00    -0.19   0.04   0.00     0.21  -0.08   0.00
    31   1    -0.31   0.03   0.11    -0.25   0.02   0.09     0.19   0.07  -0.06
    32   1    -0.31   0.03  -0.11    -0.25   0.02  -0.09     0.19   0.07   0.06
    33   1     0.00   0.00   0.00     0.01   0.00   0.01     0.00   0.00   0.00
    34   1     0.00   0.00   0.00    -0.01   0.00   0.01     0.00   0.00   0.00
    35   1     0.00   0.00   0.00    -0.01   0.00  -0.01     0.00   0.00   0.00
    36   1     0.00   0.00   0.00     0.01   0.00  -0.01     0.00   0.00   0.00
                    70                     71                     72
                     A                      A                      A
 Frequencies --  1378.9094              1379.1457              1379.9591
 Red. masses --     5.2117                 1.3089                 1.3114
 Frc consts  --     5.8385                 1.4668                 1.4714
 IR Inten    --     0.0000               108.4891               110.7081
 Raman Activ --     1.0914                 0.0000                 0.0000
 Depolar (P) --     0.7500                 0.7493                 0.5380
 Depolar (U) --     0.8571                 0.8567                 0.6996
  Atom  AN      X      Y      Z        X      Y      Z        X      Y      Z
     1   6     0.00   0.00   0.37     0.00  -0.04   0.00     0.00   0.00   0.00
     2   6     0.00   0.00  -0.08    -0.01   0.11   0.00     0.00   0.00   0.00
     3   6     0.00   0.00   0.00     0.00   0.00   0.00    -0.04   0.00   0.00
     4   6     0.00   0.00   0.00     0.00   0.00   0.00     0.11   0.01   0.00
     5   1     0.00   0.00   0.45    -0.15  -0.39   0.00     0.00   0.00   0.00
     6   1    -0.22  -0.07   0.10     0.13  -0.35   0.12     0.00   0.00   0.00
     7   1     0.22   0.07   0.09     0.13  -0.35  -0.12     0.00   0.00   0.00
     8   1     0.00   0.00  -0.02     0.00   0.00   0.00    -0.39   0.15   0.00
     9   1    -0.01  -0.01   0.00     0.00   0.00   0.00    -0.35  -0.13   0.12
    10   1     0.01   0.01   0.00     0.00   0.00   0.00    -0.35  -0.13  -0.12
    11   8     0.00  -0.05  -0.12     0.00   0.01   0.01     0.00   0.00   0.00
    12   8     0.00   0.05  -0.12     0.00   0.01  -0.01     0.00   0.00   0.00
    13   8     0.00   0.00   0.00     0.00   0.00   0.00     0.01   0.00   0.01
    14   8     0.00   0.00   0.00     0.00   0.00   0.00     0.01   0.00  -0.01
    15   8     0.00   0.00   0.00     0.00   0.00   0.00     0.00   0.00   0.00
    16  45     0.00   0.00   0.00     0.00   0.00   0.00     0.00   0.00   0.00
    17  45     0.00   0.00   0.00     0.00   0.00   0.00     0.00   0.00   0.00
    18   8     0.00  -0.05   0.12     0.00   0.01  -0.01     0.00   0.00   0.00
    19   8     0.00   0.00   0.00     0.00   0.00   0.00     0.01   0.00  -0.01
    20   6     0.00   0.00   0.00     0.00   0.00   0.00    -0.04   0.00   0.00
    21   8     0.00   0.05   0.12     0.00   0.01   0.01     0.00   0.00   0.00
    22   8     0.00   0.00   0.00     0.00   0.00   0.00     0.01   0.00   0.01
    23   8     0.00   0.00   0.00     0.00   0.00   0.00     0.00   0.00   0.00
    24   6     0.00   0.00  -0.37     0.00  -0.04   0.00     0.00   0.00   0.00
    25   6     0.00   0.00   0.00     0.00   0.00   0.00     0.11   0.01   0.00
    26   6     0.00   0.00   0.08    -0.01   0.11   0.00     0.00   0.00   0.00
    27   1     0.00   0.00  -0.45    -0.15  -0.39   0.00     0.00   0.00   0.00
    28   1     0.22   0.07  -0.10     0.13  -0.35   0.12     0.00   0.00   0.00
    29   1    -0.22  -0.07  -0.09     0.13  -0.35  -0.12     0.00   0.00   0.00
    30   1     0.00   0.00   0.02     0.00   0.00   0.00    -0.39   0.15   0.00
    31   1     0.01   0.01   0.00     0.00   0.00   0.00    -0.35  -0.13   0.12
    32   1    -0.01  -0.01   0.00     0.00   0.00   0.00    -0.35  -0.13  -0.12
    33   1     0.00   0.02   0.00     0.00   0.00   0.00     0.00   0.00   0.00
    34   1     0.00   0.02   0.00     0.00   0.00   0.00     0.00   0.00   0.00
    35   1     0.00  -0.02   0.00     0.00   0.00   0.00     0.00   0.00   0.00
    36   1     0.00  -0.02   0.00     0.00   0.00   0.00     0.00   0.00   0.00
                    73                     74                     75
                     A                      A                      A
 Frequencies --  1380.7585              1380.8459              1412.9991
 Red. masses --     5.1044                 1.3635                 2.9758
 Frc consts  --     5.7337                 1.5318                 3.5006
 IR Inten    --     0.0000                 0.0000                 0.6726
 Raman Activ --     0.7232                 6.1865                 0.0000
 Depolar (P) --     0.7500                 0.1958                 0.3014
 Depolar (U) --     0.8571                 0.3275                 0.4633
  Atom  AN      X      Y      Z        X      Y      Z        X      Y      Z
     1   6     0.00   0.00   0.00     0.00   0.03   0.00     0.00   0.00   0.17
     2   6     0.00   0.00   0.00     0.01  -0.06   0.00     0.00   0.00  -0.05
     3   6     0.00   0.00   0.36     0.04   0.00   0.00     0.00   0.00  -0.17
     4   6     0.00   0.00  -0.08    -0.09  -0.01   0.00     0.00   0.00   0.05
     5   1     0.00   0.00   0.02     0.08   0.21   0.00     0.00   0.00   0.35
     6   1    -0.01   0.01   0.00    -0.07   0.19  -0.06    -0.19   0.03   0.06
     7   1     0.01  -0.01   0.00    -0.07   0.19   0.06     0.19  -0.03   0.06
     8   1     0.00   0.00   0.45     0.33  -0.13   0.00     0.00   0.00  -0.36
     9   1    -0.06   0.22   0.09     0.29   0.12  -0.10    -0.03  -0.19  -0.06
    10   1     0.06  -0.22   0.09     0.29   0.12   0.10     0.03   0.19  -0.06
    11   8     0.00   0.00   0.00     0.00  -0.01  -0.01     0.00  -0.03  -0.06
    12   8     0.00   0.00   0.00     0.00  -0.01   0.01     0.00   0.03  -0.06
    13   8    -0.05   0.00  -0.12    -0.01   0.00  -0.01     0.03   0.00   0.06
    14   8    -0.05   0.00   0.12     0.01   0.00  -0.01    -0.03   0.00   0.06
    15   8     0.00   0.00   0.00     0.00   0.00   0.00     0.00   0.00   0.00
    16  45     0.00   0.00   0.00     0.00   0.00   0.00     0.00   0.00   0.00
    17  45     0.00   0.00   0.00     0.00   0.00   0.00     0.00   0.00   0.00
    18   8     0.00   0.00   0.00     0.00   0.01  -0.01     0.00   0.03  -0.06
    19   8     0.05   0.00  -0.12    -0.01   0.00   0.01    -0.03   0.00   0.06
    20   6     0.00   0.00  -0.36    -0.04   0.00   0.00     0.00   0.00  -0.17
    21   8     0.00   0.00   0.00     0.00   0.01   0.01     0.00  -0.03  -0.06
    22   8     0.05   0.00   0.12     0.01   0.00   0.01     0.03   0.00   0.06
    23   8     0.00   0.00   0.00     0.00   0.00   0.00     0.00   0.00   0.00
    24   6     0.00   0.00   0.00     0.00  -0.03   0.00     0.00   0.00   0.17
    25   6     0.00   0.00   0.08     0.09   0.01   0.00     0.00   0.00   0.05
    26   6     0.00   0.00   0.00    -0.01   0.06   0.00     0.00   0.00  -0.05
    27   1     0.00   0.00  -0.02    -0.08  -0.21   0.00     0.00   0.00   0.35
    28   1     0.01  -0.01   0.00     0.07  -0.19   0.06    -0.19   0.03   0.06
    29   1    -0.01   0.01   0.00     0.07  -0.19  -0.06     0.19  -0.03   0.06
    30   1     0.00   0.00  -0.45    -0.33   0.13   0.00     0.00   0.00  -0.36
    31   1     0.06  -0.22  -0.09    -0.29  -0.12   0.10    -0.03  -0.19  -0.06
    32   1    -0.06   0.22  -0.09    -0.29  -0.12  -0.10     0.03   0.19  -0.06
    33   1     0.01   0.00   0.02     0.00   0.00  -0.01    -0.02   0.00  -0.03
    34   1     0.01   0.00  -0.02     0.00   0.00  -0.01     0.02   0.00  -0.03
    35   1    -0.01   0.00  -0.02     0.00   0.00   0.01    -0.02   0.00  -0.03
    36   1    -0.01   0.00   0.02     0.00   0.00   0.01     0.02   0.00  -0.03
                    76                     77                     78
                     A                      A                      A
 Frequencies --  1439.2318              1458.0613              1458.1670
 Red. masses --     1.3817                 1.0605                 1.0600
 Frc consts  --     1.6862                 1.3283                 1.3279
 IR Inten    --   361.4800                 0.0000                30.6624
 Raman Activ --     0.0000                39.3078                 0.0000
 Depolar (P) --     0.1538                 0.7475                 0.7218
 Depolar (U) --     0.2665                 0.8555                 0.8384
  Atom  AN      X      Y      Z        X      Y      Z        X      Y      Z
     1   6     0.00   0.00   0.07    -0.01   0.02   0.00     0.01  -0.02   0.00
     2   6     0.00   0.00  -0.04    -0.03  -0.01   0.00     0.04   0.01   0.00
     3   6     0.00   0.00   0.07    -0.01  -0.01   0.00     0.00   0.00   0.00
     4   6     0.00   0.00  -0.04     0.01  -0.02   0.00     0.00   0.00   0.00
     5   1     0.00   0.00   0.37    -0.08  -0.21   0.00     0.09   0.24   0.00
     6   1    -0.20   0.10   0.04     0.30   0.14  -0.24    -0.34  -0.15   0.27
     7   1     0.20  -0.10   0.04     0.30   0.14   0.24    -0.34  -0.15  -0.27
     8   1     0.00   0.00   0.36     0.11  -0.04   0.00     0.00   0.00   0.00
     9   1     0.10   0.20   0.04    -0.08   0.16   0.13     0.00   0.00   0.00
    10   1    -0.10  -0.20   0.04    -0.08   0.16  -0.13     0.00   0.00   0.00
    11   8     0.00  -0.01  -0.03     0.00   0.00   0.00     0.00   0.00   0.00
    12   8     0.00   0.01  -0.03     0.00   0.00   0.00     0.00   0.00   0.00
    13   8    -0.01   0.00  -0.03     0.00   0.00   0.00     0.00   0.00   0.00
    14   8     0.01   0.00  -0.03     0.00   0.00   0.00     0.00   0.00   0.00
    15   8     0.00   0.00  -0.01     0.00   0.00   0.00     0.00   0.00   0.00
    16  45     0.00   0.00   0.00     0.00   0.00   0.00     0.00   0.00   0.00
    17  45     0.00   0.00   0.00     0.00   0.00   0.00     0.00   0.00   0.00
    18   8     0.00   0.01  -0.03     0.00   0.00   0.00     0.00   0.00   0.00
    19   8     0.01   0.00  -0.03     0.00   0.00   0.00     0.00   0.00   0.00
    20   6     0.00   0.00   0.07     0.01   0.01   0.00     0.00   0.00   0.00
    21   8     0.00  -0.01  -0.03     0.00   0.00   0.00     0.00   0.00   0.00
    22   8    -0.01   0.00  -0.03     0.00   0.00   0.00     0.00   0.00   0.00
    23   8     0.00   0.00  -0.01     0.00   0.00   0.00     0.00   0.00   0.00
    24   6     0.00   0.00   0.07     0.01  -0.02   0.00     0.01  -0.02   0.00
    25   6     0.00   0.00  -0.04    -0.01   0.02   0.00     0.00   0.00   0.00
    26   6     0.00   0.00  -0.04     0.03   0.01   0.00     0.04   0.01   0.00
    27   1     0.00   0.00   0.37     0.08   0.21   0.00     0.09   0.24   0.00
    28   1    -0.20   0.10   0.04    -0.30  -0.14   0.24    -0.34  -0.15   0.27
    29   1     0.20  -0.10   0.04    -0.30  -0.14  -0.24    -0.34  -0.15  -0.27
    30   1     0.00   0.00   0.36    -0.11   0.04   0.00     0.00   0.00   0.00
    31   1     0.10   0.20   0.04     0.08  -0.16  -0.13     0.00   0.00   0.00
    32   1    -0.10  -0.20   0.04     0.08  -0.16   0.13     0.00   0.00   0.00
    33   1     0.02   0.00   0.03     0.00   0.00   0.00     0.00   0.00   0.00
    34   1    -0.02   0.00   0.03     0.00   0.00   0.00     0.00   0.00   0.00
    35   1     0.02   0.00   0.03     0.00   0.00   0.00     0.00   0.00   0.00
    36   1    -0.02   0.00   0.03     0.00   0.00   0.00     0.00   0.00   0.00
                    79                     80                     81
                     A                      A                      A
 Frequencies --  1458.7037              1459.0149              1465.0908
 Red. masses --     1.0604                 1.0630                 1.1311
 Frc consts  --     1.3293                 1.3333                 1.4304
 IR Inten    --    31.4064                 0.0000                 0.0000
 Raman Activ --     0.0000                 7.2765                34.2029
 Depolar (P) --     0.7494                 0.5803                 0.7500
 Depolar (U) --     0.8568                 0.7344                 0.8571
  Atom  AN      X      Y      Z        X      Y      Z        X      Y      Z
     1   6     0.00   0.00   0.00     0.01  -0.01   0.00     0.00   0.00  -0.06
     2   6     0.00   0.00   0.00     0.02   0.01   0.00     0.00   0.00  -0.03
     3   6    -0.02  -0.01   0.00    -0.02  -0.01   0.00     0.00   0.00   0.00
     4   6     0.02  -0.04   0.00     0.01  -0.03   0.00     0.00   0.00   0.00
     5   1     0.00   0.00   0.00     0.04   0.12   0.00     0.00   0.00   0.48
     6   1     0.00   0.00   0.00    -0.16  -0.07   0.13    -0.28   0.22   0.04
     7   1     0.00   0.00   0.00    -0.16  -0.07  -0.13     0.28  -0.22   0.04
     8   1     0.24  -0.09   0.00     0.21  -0.08   0.00     0.00   0.00  -0.03
     9   1    -0.16   0.34   0.27    -0.14   0.30   0.24    -0.01  -0.01   0.00
    10   1    -0.16   0.34  -0.27    -0.14   0.30  -0.24     0.01   0.01   0.00
    11   8     0.00   0.00   0.00     0.00   0.00   0.00     0.00   0.01   0.02
    12   8     0.00   0.00   0.00     0.00   0.00   0.00     0.00  -0.01   0.02
    13   8     0.00   0.00   0.00     0.00   0.00   0.00     0.00   0.00   0.00
    14   8     0.00   0.00   0.00     0.00   0.00   0.00     0.00   0.00   0.00
    15   8     0.00   0.00   0.00     0.00   0.00   0.00     0.00   0.00   0.00
    16  45     0.00   0.00   0.00     0.00   0.00   0.00     0.00   0.00   0.00
    17  45     0.00   0.00   0.00     0.00   0.00   0.00     0.00   0.00   0.00
    18   8     0.00   0.00   0.00     0.00   0.00   0.00     0.00   0.01  -0.02
    19   8     0.00   0.00   0.00     0.00   0.00   0.00     0.00   0.00   0.00
    20   6    -0.02  -0.01   0.00     0.02   0.01   0.00     0.00   0.00   0.00
    21   8     0.00   0.00   0.00     0.00   0.00   0.00     0.00  -0.01  -0.02
    22   8     0.00   0.00   0.00     0.00   0.00   0.00     0.00   0.00   0.00
    23   8     0.00   0.00   0.00     0.00   0.00   0.00     0.00   0.00   0.00
    24   6     0.00   0.00   0.00    -0.01   0.01   0.00     0.00   0.00   0.06
    25   6     0.02  -0.04   0.00    -0.01   0.03   0.00     0.00   0.00   0.00
    26   6     0.00   0.00   0.00    -0.02  -0.01   0.00     0.00   0.00   0.03
    27   1     0.00   0.00   0.00    -0.04  -0.12   0.00     0.00   0.00  -0.48
    28   1     0.00   0.00   0.00     0.16   0.07  -0.13     0.28  -0.22  -0.04
    29   1     0.00   0.00   0.00     0.16   0.07   0.13    -0.28   0.22  -0.04
    30   1     0.24  -0.09   0.00    -0.21   0.08   0.00     0.00   0.00   0.03
    31   1    -0.16   0.34   0.27     0.14  -0.30  -0.24     0.01   0.01   0.00
    32   1    -0.16   0.34  -0.27     0.14  -0.30   0.24    -0.01  -0.01   0.00
    33   1     0.00   0.00   0.00     0.00   0.00   0.00     0.00   0.00   0.00
    34   1     0.00   0.00   0.00     0.00   0.00   0.00     0.00   0.00   0.00
    35   1     0.00   0.00   0.00     0.00   0.00   0.00     0.00   0.00   0.00
    36   1     0.00   0.00   0.00     0.00   0.00   0.00     0.00   0.00   0.00
                    82                     83                     84
                     A                      A                      A
 Frequencies --  1465.3087              1474.0172              1501.2086
 Red. masses --     1.1363                 1.3579                 2.2530
 Frc consts  --     1.4375                 1.7383                 2.9915
 IR Inten    --     0.0000                 0.6215               338.9278
 Raman Activ --    33.3019                 0.0000                 0.0000
 Depolar (P) --     0.7500                 0.7414                 0.1879
 Depolar (U) --     0.8571                 0.8515                 0.3164
  Atom  AN      X      Y      Z        X      Y      Z        X      Y      Z
     1   6     0.00   0.00   0.00     0.00   0.00   0.08     0.00   0.00   0.15
     2   6     0.00   0.00   0.00     0.00   0.00   0.02     0.00   0.00   0.00
     3   6     0.00   0.00  -0.06     0.00   0.00  -0.08     0.00   0.00   0.14
     4   6     0.00   0.00  -0.03     0.00   0.00  -0.02     0.00   0.00   0.00
     5   1     0.00   0.00   0.03     0.00   0.00  -0.32     0.00   0.00  -0.24
     6   1    -0.01   0.01   0.00     0.19  -0.17  -0.02     0.15  -0.18   0.00
     7   1     0.01  -0.01   0.00    -0.19   0.17  -0.02    -0.15   0.18   0.00
     8   1     0.00   0.00   0.48     0.00   0.00   0.33     0.00   0.00  -0.22
     9   1     0.23   0.28   0.04     0.18   0.20   0.02    -0.16  -0.14   0.00
    10   1    -0.23  -0.28   0.04    -0.18  -0.20   0.02     0.16   0.14   0.00
    11   8     0.00   0.00   0.00     0.00  -0.01  -0.02     0.00  -0.02  -0.05
    12   8     0.00   0.00   0.00     0.00   0.01  -0.02     0.00   0.02  -0.05
    13   8     0.01   0.00   0.02     0.01   0.00   0.02    -0.02   0.00  -0.04
    14   8     0.01   0.00  -0.02    -0.01   0.00   0.02     0.02   0.00  -0.04
    15   8     0.00   0.00   0.00     0.00   0.00   0.00     0.00   0.00  -0.03
    16  45     0.00   0.00   0.00     0.00   0.00   0.00     0.00   0.00   0.00
    17  45     0.00   0.00   0.00     0.00   0.00   0.00     0.00   0.00   0.00
    18   8     0.00   0.00   0.00     0.00   0.01  -0.02     0.00   0.02  -0.05
    19   8    -0.01   0.00   0.02    -0.01   0.00   0.02     0.02   0.00  -0.04
    20   6     0.00   0.00   0.06     0.00   0.00  -0.08     0.00   0.00   0.14
    21   8     0.00   0.00   0.00     0.00  -0.01  -0.02     0.00  -0.02  -0.05
    22   8    -0.01   0.00  -0.02     0.01   0.00   0.02    -0.02   0.00  -0.04
    23   8     0.00   0.00   0.00     0.00   0.00   0.00     0.00   0.00  -0.03
    24   6     0.00   0.00   0.00     0.00   0.00   0.08     0.00   0.00   0.15
    25   6     0.00   0.00   0.03     0.00   0.00  -0.02     0.00   0.00   0.00
    26   6     0.00   0.00   0.00     0.00   0.00   0.02     0.00   0.00   0.00
    27   1     0.00   0.00  -0.03     0.00   0.00  -0.32     0.00   0.00  -0.24
    28   1     0.01  -0.01   0.00     0.19  -0.17  -0.02     0.15  -0.18   0.00
    29   1    -0.01   0.01   0.00    -0.19   0.17  -0.02    -0.15   0.18   0.00
    30   1     0.00   0.00  -0.48     0.00   0.00   0.33     0.00   0.00  -0.22
    31   1    -0.23  -0.28  -0.04     0.18   0.20   0.02    -0.16  -0.14   0.00
    32   1     0.23   0.28  -0.04    -0.18  -0.20   0.02     0.16   0.14   0.00
    33   1     0.00   0.00   0.00    -0.01   0.00  -0.02     0.14   0.00   0.23
    34   1     0.00   0.00   0.00     0.01   0.00  -0.02    -0.14   0.00   0.23
    35   1     0.00   0.00   0.00    -0.01   0.00  -0.02     0.14   0.00   0.23
    36   1     0.00   0.00   0.00     0.01   0.00  -0.02    -0.14   0.00   0.23
                    85                     86                     87
                     A                      A                      A
 Frequencies --  1528.8582              1530.5915              2988.6052
 Red. masses --     1.1006                 1.2472                 1.0374
 Frc consts  --     1.5157                 1.7215                 5.4591
 IR Inten    --     0.0000                 9.9794                24.4227
 Raman Activ --    50.4712                 0.0000                 0.0000
 Depolar (P) --     0.2870                 0.2846                 0.1248
 Depolar (U) --     0.4459                 0.4431                 0.2220
  Atom  AN      X      Y      Z        X      Y      Z        X      Y      Z
     1   6     0.00   0.00   0.00     0.00   0.00   0.04     0.00   0.00   0.00
     2   6     0.00   0.00   0.00     0.00   0.00   0.00    -0.02   0.03   0.00
     3   6     0.00   0.00   0.00     0.00   0.00   0.06     0.00   0.00   0.00
     4   6     0.00   0.00   0.00     0.00   0.00   0.00     0.00   0.00   0.00
     5   1     0.00   0.00   0.00     0.00   0.00  -0.04     0.50  -0.15   0.00
     6   1     0.00   0.00   0.00     0.03  -0.04   0.00    -0.16  -0.11  -0.28
     7   1     0.00   0.00   0.00    -0.03   0.04   0.00    -0.16  -0.11   0.28
     8   1     0.00   0.00   0.00     0.00   0.00  -0.05     0.00   0.00   0.00
     9   1     0.00   0.00   0.00    -0.05  -0.03   0.00     0.00   0.00   0.00
    10   1     0.00   0.00   0.00     0.05   0.03   0.00     0.00   0.00   0.00
    11   8     0.00   0.00   0.00     0.00  -0.01  -0.01     0.00   0.00   0.00
    12   8     0.00   0.00   0.00     0.00   0.01  -0.01     0.00   0.00   0.00
    13   8     0.00   0.00   0.00    -0.01   0.00  -0.02     0.00   0.00   0.00
    14   8     0.00   0.00   0.00     0.01   0.00  -0.02     0.00   0.00   0.00
    15   8     0.00   0.00   0.06     0.00   0.00   0.05     0.00   0.00   0.00
    16  45     0.00   0.00   0.00     0.00   0.00   0.00     0.00   0.00   0.00
    17  45     0.00   0.00   0.00     0.00   0.00   0.00     0.00   0.00   0.00
    18   8     0.00   0.00   0.00     0.00   0.01  -0.01     0.00   0.00   0.00
    19   8     0.00   0.00   0.00     0.01   0.00  -0.02     0.00   0.00   0.00
    20   6     0.00   0.00   0.00     0.00   0.00   0.06     0.00   0.00   0.00
    21   8     0.00   0.00   0.00     0.00  -0.01  -0.01     0.00   0.00   0.00
    22   8     0.00   0.00   0.00    -0.01   0.00  -0.02     0.00   0.00   0.00
    23   8     0.00   0.00  -0.06     0.00   0.00   0.05     0.00   0.00   0.00
    24   6     0.00   0.00   0.00     0.00   0.00   0.04     0.00   0.00   0.00
    25   6     0.00   0.00   0.00     0.00   0.00   0.00     0.00   0.00   0.00
    26   6     0.00   0.00   0.00     0.00   0.00   0.00    -0.02   0.03   0.00
    27   1     0.00   0.00   0.00     0.00   0.00  -0.04     0.50  -0.15   0.00
    28   1     0.00   0.00   0.00     0.03  -0.04   0.00    -0.16  -0.11  -0.28
    29   1     0.00   0.00   0.00    -0.03   0.04   0.00    -0.16  -0.11   0.28
    30   1     0.00   0.00   0.00     0.00   0.00  -0.05     0.00   0.00   0.00
    31   1     0.00   0.00   0.00    -0.05  -0.03   0.00     0.00   0.00   0.00
    32   1     0.00   0.00   0.00     0.05   0.03   0.00     0.00   0.00   0.00
    33   1     0.26   0.00   0.42    -0.26   0.00  -0.41     0.00   0.00   0.00
    34   1    -0.26   0.00   0.42     0.26   0.00  -0.41     0.00   0.00   0.00
    35   1    -0.26   0.00  -0.42    -0.26   0.00  -0.41     0.00   0.00   0.00
    36   1     0.26   0.00  -0.42     0.26   0.00  -0.41     0.00   0.00   0.00
                    88                     89                     90
                     A                      A                      A
 Frequencies --  2988.6850              2988.7888              2988.9130
 Red. masses --     1.0374                 1.0374                 1.0374
 Frc consts  --     5.4594                 5.4601                 5.4604
 IR Inten    --     0.0000                23.6429                 0.0000
 Raman Activ --   220.7690                 0.0000               707.1388
 Depolar (P) --     0.1523                 0.0248                 0.0329
 Depolar (U) --     0.2643                 0.0484                 0.0637
  Atom  AN      X      Y      Z        X      Y      Z        X      Y      Z
     1   6     0.00   0.00   0.00     0.00   0.00   0.00     0.00   0.00   0.00
     2   6     0.01  -0.03   0.00     0.00   0.00   0.00    -0.01   0.01   0.00
     3   6     0.00   0.00   0.00     0.00   0.00   0.00     0.00   0.00   0.00
     4   6     0.01   0.01   0.00    -0.03  -0.02   0.00     0.03   0.01   0.00
     5   1    -0.47   0.14   0.00     0.00   0.00   0.00     0.16  -0.05   0.00
     6   1     0.15   0.11   0.26     0.00   0.00   0.00    -0.05  -0.04  -0.09
     7   1     0.15   0.11  -0.26     0.00   0.00   0.00    -0.05  -0.04   0.09
     8   1    -0.05  -0.16   0.00     0.15   0.50   0.00    -0.14  -0.47   0.00
     9   1    -0.04   0.05  -0.09     0.11  -0.16   0.28    -0.11   0.15  -0.26
    10   1    -0.04   0.05   0.09     0.11  -0.16  -0.28    -0.11   0.15   0.26
    11   8     0.00   0.00   0.00     0.00   0.00   0.00     0.00   0.00   0.00
    12   8     0.00   0.00   0.00     0.00   0.00   0.00     0.00   0.00   0.00
    13   8     0.00   0.00   0.00     0.00   0.00   0.00     0.00   0.00   0.00
    14   8     0.00   0.00   0.00     0.00   0.00   0.00     0.00   0.00   0.00
    15   8     0.00   0.00   0.00     0.00   0.00   0.00     0.00   0.00   0.00
    16  45     0.00   0.00   0.00     0.00   0.00   0.00     0.00   0.00   0.00
    17  45     0.00   0.00   0.00     0.00   0.00   0.00     0.00   0.00   0.00
    18   8     0.00   0.00   0.00     0.00   0.00   0.00     0.00   0.00   0.00
    19   8     0.00   0.00   0.00     0.00   0.00   0.00     0.00   0.00   0.00
    20   6     0.00   0.00   0.00     0.00   0.00   0.00     0.00   0.00   0.00
    21   8     0.00   0.00   0.00     0.00   0.00   0.00     0.00   0.00   0.00
    22   8     0.00   0.00   0.00     0.00   0.00   0.00     0.00   0.00   0.00
    23   8     0.00   0.00   0.00     0.00   0.00   0.00     0.00   0.00   0.00
    24   6     0.00   0.00   0.00     0.00   0.00   0.00     0.00   0.00   0.00
    25   6    -0.01  -0.01   0.00    -0.03  -0.02   0.00    -0.03  -0.01   0.00
    26   6    -0.01   0.03   0.00     0.00   0.00   0.00     0.01  -0.01   0.00
    27   1     0.47  -0.14   0.00     0.00   0.00   0.00    -0.16   0.05   0.00
    28   1    -0.15  -0.11  -0.26     0.00   0.00   0.00     0.05   0.04   0.09
    29   1    -0.15  -0.11   0.26     0.00   0.00   0.00     0.05   0.04  -0.09
    30   1     0.05   0.16   0.00     0.15   0.50   0.00     0.14   0.47   0.00
    31   1     0.04  -0.05   0.09     0.11  -0.16   0.28     0.11  -0.15   0.26
    32   1     0.04  -0.05  -0.09     0.11  -0.16  -0.28     0.11  -0.15  -0.26
    33   1     0.00   0.00   0.00     0.00   0.00   0.00     0.00   0.00   0.00
    34   1     0.00   0.00   0.00     0.00   0.00   0.00     0.00   0.00   0.00
    35   1     0.00   0.00   0.00     0.00   0.00   0.00     0.00   0.00   0.00
    36   1     0.00   0.00   0.00     0.00   0.00   0.00     0.00   0.00   0.00
                    91                     92                     93
                     A                      A                      A
 Frequencies --  3080.4626              3080.4843              3080.7123
 Red. masses --     1.0944                 1.0943                 1.0944
 Frc consts  --     6.1184                 6.1184                 6.1196
 IR Inten    --     0.0000                25.3160                25.0742
 Raman Activ --    80.8112                 0.0000                 0.0000
 Depolar (P) --     0.4849                 0.4809                 0.5817
 Depolar (U) --     0.6531                 0.6495                 0.7355
  Atom  AN      X      Y      Z        X      Y      Z        X      Y      Z
     1   6     0.00   0.00   0.00     0.00   0.00   0.00     0.00   0.00   0.00
     2   6    -0.06  -0.01   0.00    -0.06  -0.01   0.00     0.00   0.00   0.00
     3   6     0.00   0.00   0.00     0.00   0.00   0.00     0.00   0.00   0.00
     4   6     0.00   0.02   0.00     0.00   0.00   0.00     0.01  -0.06   0.00
     5   1     0.41  -0.13   0.00     0.44  -0.14   0.00     0.00   0.00   0.00
     6   1     0.14   0.12   0.29     0.15   0.13   0.31     0.00   0.00   0.00
     7   1     0.14   0.12  -0.29     0.15   0.13  -0.31     0.00   0.00   0.00
     8   1    -0.06  -0.18   0.00     0.00   0.00   0.00     0.14   0.44   0.00
     9   1     0.05  -0.06   0.13     0.00   0.00   0.00    -0.13   0.15  -0.31
    10   1     0.05  -0.06  -0.13     0.00   0.00   0.00    -0.13   0.15   0.31
    11   8     0.00   0.00   0.00     0.00   0.00   0.00     0.00   0.00   0.00
    12   8     0.00   0.00   0.00     0.00   0.00   0.00     0.00   0.00   0.00
    13   8     0.00   0.00   0.00     0.00   0.00   0.00     0.00   0.00   0.00
    14   8     0.00   0.00   0.00     0.00   0.00   0.00     0.00   0.00   0.00
    15   8     0.00   0.00   0.00     0.00   0.00   0.00     0.00   0.00   0.00
    16  45     0.00   0.00   0.00     0.00   0.00   0.00     0.00   0.00   0.00
    17  45     0.00   0.00   0.00     0.00   0.00   0.00     0.00   0.00   0.00
    18   8     0.00   0.00   0.00     0.00   0.00   0.00     0.00   0.00   0.00
    19   8     0.00   0.00   0.00     0.00   0.00   0.00     0.00   0.00   0.00
    20   6     0.00   0.00   0.00     0.00   0.00   0.00     0.00   0.00   0.00
    21   8     0.00   0.00   0.00     0.00   0.00   0.00     0.00   0.00   0.00
    22   8     0.00   0.00   0.00     0.00   0.00   0.00     0.00   0.00   0.00
    23   8     0.00   0.00   0.00     0.00   0.00   0.00     0.00   0.00   0.00
    24   6     0.00   0.00   0.00     0.00   0.00   0.00     0.00   0.00   0.00
    25   6     0.00  -0.02   0.00     0.00   0.00   0.00     0.01  -0.06   0.00
    26   6     0.06   0.01   0.00    -0.06  -0.01   0.00     0.00   0.00   0.00
    27   1    -0.41   0.13   0.00     0.44  -0.14   0.00     0.00   0.00   0.00
    28   1    -0.14  -0.12  -0.29     0.15   0.13   0.31     0.00   0.00   0.00
    29   1    -0.14  -0.12   0.29     0.15   0.13  -0.31     0.00   0.00   0.00
    30   1     0.06   0.18   0.00     0.00   0.00   0.00     0.14   0.44   0.00
    31   1    -0.05   0.06  -0.13     0.00   0.00   0.00    -0.13   0.15  -0.31
    32   1    -0.05   0.06   0.13     0.00   0.00   0.00    -0.13   0.15   0.31
    33   1     0.00   0.00   0.00     0.00   0.00   0.00     0.00   0.00   0.00
    34   1     0.00   0.00   0.00     0.00   0.00   0.00     0.00   0.00   0.00
    35   1     0.00   0.00   0.00     0.00   0.00   0.00     0.00   0.00   0.00
    36   1     0.00   0.00   0.00     0.00   0.00   0.00     0.00   0.00   0.00
                    94                     95                     96
                     A                      A                      A
 Frequencies --  3080.8022              3117.9285              3117.9807
 Red. masses --     1.0944                 1.1023                 1.1023
 Frc consts  --     6.1199                 6.3138                 6.3137
 IR Inten    --     0.0000                 0.0000                 5.8985
 Raman Activ --   206.8114               122.7992                 0.0000
 Depolar (P) --     0.7326                 0.7500                 0.7499
 Depolar (U) --     0.8457                 0.8571                 0.8570
  Atom  AN      X      Y      Z        X      Y      Z        X      Y      Z
     1   6     0.00   0.00   0.00     0.00   0.00   0.00     0.00   0.00   0.00
     2   6    -0.02   0.00   0.00     0.00   0.00   0.00     0.00   0.00   0.03
     3   6     0.00   0.00   0.00     0.00   0.00   0.00     0.00   0.00   0.00
     4   6     0.01  -0.06   0.00     0.00   0.00  -0.07     0.00   0.00  -0.06
     5   1     0.18  -0.06   0.00     0.00   0.00   0.00     0.00   0.00   0.01
     6   1     0.06   0.05   0.13     0.00   0.00   0.00    -0.09  -0.07  -0.16
     7   1     0.06   0.05  -0.13     0.00   0.00   0.00     0.09   0.07  -0.16
     8   1     0.13   0.41   0.00     0.00   0.00  -0.02     0.00   0.00  -0.02
     9   1    -0.12   0.14  -0.29     0.18  -0.23   0.41     0.17  -0.21   0.37
    10   1    -0.12   0.14   0.29    -0.18   0.23   0.41    -0.17   0.21   0.37
    11   8     0.00   0.00   0.00     0.00   0.00   0.00     0.00   0.00   0.00
    12   8     0.00   0.00   0.00     0.00   0.00   0.00     0.00   0.00   0.00
    13   8     0.00   0.00   0.00     0.00   0.00   0.00     0.00   0.00   0.00
    14   8     0.00   0.00   0.00     0.00   0.00   0.00     0.00   0.00   0.00
    15   8     0.00   0.00   0.00     0.00   0.00   0.00     0.00   0.00   0.00
    16  45     0.00   0.00   0.00     0.00   0.00   0.00     0.00   0.00   0.00
    17  45     0.00   0.00   0.00     0.00   0.00   0.00     0.00   0.00   0.00
    18   8     0.00   0.00   0.00     0.00   0.00   0.00     0.00   0.00   0.00
    19   8     0.00   0.00   0.00     0.00   0.00   0.00     0.00   0.00   0.00
    20   6     0.00   0.00   0.00     0.00   0.00   0.00     0.00   0.00   0.00
    21   8     0.00   0.00   0.00     0.00   0.00   0.00     0.00   0.00   0.00
    22   8     0.00   0.00   0.00     0.00   0.00   0.00     0.00   0.00   0.00
    23   8     0.00   0.00   0.00     0.00   0.00   0.00     0.00   0.00   0.00
    24   6     0.00   0.00   0.00     0.00   0.00   0.00     0.00   0.00   0.00
    25   6    -0.01   0.06   0.00     0.00   0.00   0.07     0.00   0.00  -0.06
    26   6     0.02   0.00   0.00     0.00   0.00   0.00     0.00   0.00   0.03
    27   1    -0.18   0.06   0.00     0.00   0.00   0.00     0.00   0.00   0.01
    28   1    -0.06  -0.05  -0.13     0.00   0.00   0.00    -0.09  -0.07  -0.16
    29   1    -0.06  -0.05   0.13     0.00   0.00   0.00     0.09   0.07  -0.16
    30   1    -0.13  -0.41   0.00     0.00   0.00   0.02     0.00   0.00  -0.02
    31   1     0.12  -0.14   0.29    -0.18   0.23  -0.41     0.17  -0.21   0.37
    32   1     0.12  -0.14  -0.29     0.18  -0.23  -0.41    -0.17   0.21   0.37
    33   1     0.00   0.00   0.00     0.00   0.00   0.00     0.00   0.00   0.00
    34   1     0.00   0.00   0.00     0.00   0.00   0.00     0.00   0.00   0.00
    35   1     0.00   0.00   0.00     0.00   0.00   0.00     0.00   0.00   0.00
    36   1     0.00   0.00   0.00     0.00   0.00   0.00     0.00   0.00   0.00
                    97                     98                     99
                     A                      A                      A
 Frequencies --  3118.1182              3118.2550              3609.7577
 Red. masses --     1.1024                 1.1023                 1.0355
 Frc consts  --     6.3150                 6.3150                 7.9495
 IR Inten    --     0.0000                35.2125                 2.0969
 Raman Activ --   123.7958                 0.0000                 0.0026
 Depolar (P) --     0.7500                 0.7499                 0.1998
 Depolar (U) --     0.8571                 0.8571                 0.3331
  Atom  AN      X      Y      Z        X      Y      Z        X      Y      Z
     1   6     0.00   0.00   0.00     0.00   0.00   0.00     0.00   0.00   0.00
     2   6     0.00   0.00  -0.07     0.00   0.00   0.06     0.00   0.00   0.00
     3   6     0.00   0.00   0.00     0.00   0.00   0.00     0.00   0.00   0.00
     4   6     0.00   0.00   0.00     0.00   0.00   0.03     0.00   0.00   0.00
     5   1     0.00   0.00  -0.02     0.00   0.00   0.02     0.00   0.00   0.00
     6   1     0.23   0.18   0.41    -0.21  -0.17  -0.37     0.00   0.00   0.00
     7   1    -0.23  -0.18   0.41     0.21   0.17  -0.37     0.00   0.00   0.00
     8   1     0.00   0.00   0.00     0.00   0.00   0.01     0.00   0.00   0.00
     9   1     0.00   0.00   0.00    -0.07   0.09  -0.16     0.00   0.00   0.00
    10   1     0.00   0.00   0.00     0.07  -0.09  -0.16     0.00   0.00   0.00
    11   8     0.00   0.00   0.00     0.00   0.00   0.00     0.00   0.00   0.00
    12   8     0.00   0.00   0.00     0.00   0.00   0.00     0.00   0.00   0.00
    13   8     0.00   0.00   0.00     0.00   0.00   0.00     0.00   0.00   0.00
    14   8     0.00   0.00   0.00     0.00   0.00   0.00     0.00   0.00   0.00
    15   8     0.00   0.00   0.00     0.00   0.00   0.00     0.00   0.00   0.03
    16  45     0.00   0.00   0.00     0.00   0.00   0.00     0.00   0.00   0.00
    17  45     0.00   0.00   0.00     0.00   0.00   0.00     0.00   0.00   0.00
    18   8     0.00   0.00   0.00     0.00   0.00   0.00     0.00   0.00   0.00
    19   8     0.00   0.00   0.00     0.00   0.00   0.00     0.00   0.00   0.00
    20   6     0.00   0.00   0.00     0.00   0.00   0.00     0.00   0.00   0.00
    21   8     0.00   0.00   0.00     0.00   0.00   0.00     0.00   0.00   0.00
    22   8     0.00   0.00   0.00     0.00   0.00   0.00     0.00   0.00   0.00
    23   8     0.00   0.00   0.00     0.00   0.00   0.00     0.00   0.00   0.03
    24   6     0.00   0.00   0.00     0.00   0.00   0.00     0.00   0.00   0.00
    25   6     0.00   0.00   0.00     0.00   0.00   0.03     0.00   0.00   0.00
    26   6     0.00   0.00   0.07     0.00   0.00   0.06     0.00   0.00   0.00
    27   1     0.00   0.00   0.02     0.00   0.00   0.02     0.00   0.00   0.00
    28   1    -0.23  -0.18  -0.41    -0.21  -0.17  -0.37     0.00   0.00   0.00
    29   1     0.23   0.18  -0.41     0.21   0.17  -0.37     0.00   0.00   0.00
    30   1     0.00   0.00   0.00     0.00   0.00   0.01     0.00   0.00   0.00
    31   1     0.00   0.00   0.00    -0.07   0.09  -0.16     0.00   0.00   0.00
    32   1     0.00   0.00   0.00     0.07  -0.09  -0.16     0.00   0.00   0.00
    33   1     0.00   0.00   0.00     0.00   0.00   0.00     0.44   0.00  -0.24
    34   1     0.00   0.00   0.00     0.00   0.00   0.00    -0.44   0.00  -0.24
    35   1     0.00   0.00   0.00     0.00   0.00   0.00     0.44   0.00  -0.24
    36   1     0.00   0.00   0.00     0.00   0.00   0.00    -0.44   0.00  -0.24
                   100                    101                    102
                     A                      A                      A
 Frequencies --  3609.8586              3794.8639              3794.9640
 Red. masses --     1.0354                 1.0904                 1.0903
 Frc consts  --     7.9494                 9.2515                 9.2511
 IR Inten    --     0.0000               133.1733                 0.0001
 Raman Activ --  1063.9357                 0.0001               162.7863
 Depolar (P) --     0.1998                 0.7500                 0.7500
 Depolar (U) --     0.3331                 0.8571                 0.8571
  Atom  AN      X      Y      Z        X      Y      Z        X      Y      Z
     1   6     0.00   0.00   0.00     0.00   0.00   0.00     0.00   0.00   0.00
     2   6     0.00   0.00   0.00     0.00   0.00   0.00     0.00   0.00   0.00
     3   6     0.00   0.00   0.00     0.00   0.00   0.00     0.00   0.00   0.00
     4   6     0.00   0.00   0.00     0.00   0.00   0.00     0.00   0.00   0.00
     5   1     0.00   0.00   0.00     0.00   0.00   0.00     0.00   0.00   0.00
     6   1     0.00   0.00   0.00     0.00   0.00   0.00     0.00   0.00   0.00
     7   1     0.00   0.00   0.00     0.00   0.00   0.00     0.00   0.00   0.00
     8   1     0.00   0.00   0.00     0.00   0.00   0.00     0.00   0.00   0.00
     9   1     0.00   0.00   0.00     0.00   0.00   0.00     0.00   0.00   0.00
    10   1     0.00   0.00   0.00     0.00   0.00   0.00     0.00   0.00   0.00
    11   8     0.00   0.00   0.00     0.00   0.00   0.00     0.00   0.00   0.00
    12   8     0.00   0.00   0.00     0.00   0.00   0.00     0.00   0.00   0.00
    13   8     0.00   0.00   0.00     0.00   0.00   0.00     0.00   0.00   0.00
    14   8     0.00   0.00   0.00     0.00   0.00   0.00     0.00   0.00   0.00
    15   8     0.00   0.00   0.03    -0.05   0.00   0.00     0.05   0.00   0.00
    16  45     0.00   0.00   0.00     0.00   0.00   0.00     0.00   0.00   0.00
    17  45     0.00   0.00   0.00     0.00   0.00   0.00     0.00   0.00   0.00
    18   8     0.00   0.00   0.00     0.00   0.00   0.00     0.00   0.00   0.00
    19   8     0.00   0.00   0.00     0.00   0.00   0.00     0.00   0.00   0.00
    20   6     0.00   0.00   0.00     0.00   0.00   0.00     0.00   0.00   0.00
    21   8     0.00   0.00   0.00     0.00   0.00   0.00     0.00   0.00   0.00
    22   8     0.00   0.00   0.00     0.00   0.00   0.00     0.00   0.00   0.00
    23   8     0.00   0.00  -0.03    -0.05   0.00   0.00    -0.05   0.00   0.00
    24   6     0.00   0.00   0.00     0.00   0.00   0.00     0.00   0.00   0.00
    25   6     0.00   0.00   0.00     0.00   0.00   0.00     0.00   0.00   0.00
    26   6     0.00   0.00   0.00     0.00   0.00   0.00     0.00   0.00   0.00
    27   1     0.00   0.00   0.00     0.00   0.00   0.00     0.00   0.00   0.00
    28   1     0.00   0.00   0.00     0.00   0.00   0.00     0.00   0.00   0.00
    29   1     0.00   0.00   0.00     0.00   0.00   0.00     0.00   0.00   0.00
    30   1     0.00   0.00   0.00     0.00   0.00   0.00     0.00   0.00   0.00
    31   1     0.00   0.00   0.00     0.00   0.00   0.00     0.00   0.00   0.00
    32   1     0.00   0.00   0.00     0.00   0.00   0.00     0.00   0.00   0.00
    33   1    -0.44   0.00   0.24     0.42   0.00  -0.27     0.42   0.00  -0.27
    34   1     0.44   0.00   0.24     0.42   0.00   0.27     0.42   0.00   0.27
    35   1     0.44   0.00  -0.24     0.42   0.00  -0.27    -0.42   0.00   0.27
    36   1    -0.44   0.00  -0.24     0.42   0.00   0.27    -0.42   0.00  -0.27

 -------------------
 - Thermochemistry -
 -------------------
 Temperature   298.150 Kelvin.  Pressure   1.00000 Atm.
 Atom     1 has atomic number  6 and mass  12.00000
 Atom     2 has atomic number  6 and mass  12.00000
 Atom     3 has atomic number  6 and mass  12.00000
 Atom     4 has atomic number  6 and mass  12.00000
 Atom     5 has atomic number  1 and mass   1.00783
 Atom     6 has atomic number  1 and mass   1.00783
 Atom     7 has atomic number  1 and mass   1.00783
 Atom     8 has atomic number  1 and mass   1.00783
 Atom     9 has atomic number  1 and mass   1.00783
 Atom    10 has atomic number  1 and mass   1.00783
 Atom    11 has atomic number  8 and mass  15.99491
 Atom    12 has atomic number  8 and mass  15.99491
 Atom    13 has atomic number  8 and mass  15.99491
 Atom    14 has atomic number  8 and mass  15.99491
 Atom    15 has atomic number  8 and mass  15.99491
 Atom    16 has atomic number 45 and mass 102.90480
 Atom    17 has atomic number 45 and mass 102.90480
 Atom    18 has atomic number  8 and mass  15.99491
 Atom    19 has atomic number  8 and mass  15.99491
 Atom    20 has atomic number  6 and mass  12.00000
 Atom    21 has atomic number  8 and mass  15.99491
 Atom    22 has atomic number  8 and mass  15.99491
 Atom    23 has atomic number  8 and mass  15.99491
 Atom    24 has atomic number  6 and mass  12.00000
 Atom    25 has atomic number  6 and mass  12.00000
 Atom    26 has atomic number  6 and mass  12.00000
 Atom    27 has atomic number  1 and mass   1.00783
 Atom    28 has atomic number  1 and mass   1.00783
 Atom    29 has atomic number  1 and mass   1.00783
 Atom    30 has atomic number  1 and mass   1.00783
 Atom    31 has atomic number  1 and mass   1.00783
 Atom    32 has atomic number  1 and mass   1.00783
 Atom    33 has atomic number  1 and mass   1.00783
 Atom    34 has atomic number  1 and mass   1.00783
 Atom    35 has atomic number  1 and mass   1.00783
 Atom    36 has atomic number  1 and mass   1.00783
 Molecular mass:   477.88395 amu.
 Principal axes and moments of inertia in atomic units:
                           1         2         3
     Eigenvalues --  6957.578986967.813147157.82579
           X            0.99580  -0.09156   0.00000
           Y            0.09156   0.99580   0.00000
           Z            0.00000   0.00000   1.00000
 This molecule is an asymmetric top.
 Rotational symmetry number  1.
 Warning -- assumption of classical behavior for rotation
           may cause significant error
 Rotational temperatures (Kelvin)      0.01245     0.01243     0.01210
 Rotational constants (GHZ):           0.25939     0.25901     0.25214
    2 imaginary frequencies ignored.
 Zero-point vibrational energy     652666.4 (Joules/Mol)
                                  155.99102 (Kcal/Mol)
 Warning -- explicit consideration of  46 degrees of freedom as
           vibrations may cause significant error
 Vibrational temperatures:     45.21    47.23    48.05    49.76    82.62
          (Kelvin)             85.78    93.17    93.52    93.58    98.20
                               99.72   105.51   140.17   153.86   175.64
                              183.10   226.61   229.04   240.12   291.00
                              304.81   333.17   335.50   343.07   345.00
                              349.75   361.45   394.16   403.16   407.06
                              440.95   449.45   477.19   509.38   520.87
                              532.63   656.81   663.27   796.66   798.61
                              800.20   807.90   808.63   825.03   830.40
                              832.12   950.50   950.81   979.29   991.40
                             1282.13  1282.98  1296.02  1299.98  1459.12
                             1459.23  1461.75  1462.42  1500.43  1502.45
                             1502.58  1502.87  1923.08  1924.19  1925.65
                             1940.08  1983.91  1983.94  1984.28  1985.45
                             1986.60  1986.73  2032.99  2070.73  2097.82
                             2097.97  2098.75  2099.19  2107.94  2108.25
                             2120.78  2159.90  2199.68  2202.18  4299.93
                             4300.05  4300.20  4300.37  4432.09  4432.12
                             4432.45  4432.58  4486.00  4486.07  4486.27
                             4486.47  5193.63  5193.77  5459.96  5460.10
 
 Zero-point correction=                           0.248588 (Hartree/Particle)
 Thermal correction to Energy=                    0.276822
 Thermal correction to Enthalpy=                  0.277766
 Thermal correction to Gibbs Free Energy=         0.186762
 Sum of electronic and zero-point Energies=          -1285.857739
 Sum of electronic and thermal Energies=             -1285.829505
 Sum of electronic and thermal Enthalpies=           -1285.828561
 Sum of electronic and thermal Free Energies=        -1285.919565
 
                     E (Thermal)             CV                S
                      KCal/Mol        Cal/Mol-Kelvin    Cal/Mol-Kelvin
 Total                  173.708             94.193            191.535
 Electronic               0.000              0.000              0.000
 Translational            0.889              2.981             44.381
 Rotational               0.889              2.981             34.206
 Vibrational            171.931             88.232            112.948
 Vibration     1          0.594              1.983              5.738
 Vibration     2          0.594              1.983              5.651
 Vibration     3          0.594              1.983              5.617
 Vibration     4          0.594              1.983              5.547
 Vibration     5          0.596              1.975              4.544
 Vibration     6          0.597              1.974              4.470
 Vibration     7          0.597              1.971              4.307
 Vibration     8          0.597              1.971              4.299
 Vibration     9          0.597              1.971              4.298
 Vibration    10          0.598              1.969              4.203
 Vibration    11          0.598              1.969              4.173
 Vibration    12          0.599              1.967              4.062
 Vibration    13          0.603              1.951              3.505
 Vibration    14          0.606              1.944              3.324
 Vibration    15          0.610              1.931              3.067
 Vibration    16          0.611              1.926              2.987
 Vibration    17          0.621              1.894              2.580
 Vibration    18          0.621              1.892              2.559
 Vibration    19          0.624              1.883              2.470
 Vibration    20          0.639              1.837              2.112
 Vibration    21          0.643              1.823              2.028
 Vibration    22          0.653              1.793              1.867
 Vibration    23          0.654              1.790              1.854
 Vibration    24          0.656              1.782              1.814
 Vibration    25          0.657              1.780              1.804
 Vibration    26          0.659              1.774              1.780
 Vibration    27          0.663              1.761              1.722
 Vibration    28          0.676              1.721              1.571
 Vibration    29          0.680              1.710              1.532
 Vibration    30          0.682              1.705              1.516
 Vibration    31          0.697              1.661              1.381
 Vibration    32          0.701              1.650              1.350
 Vibration    33          0.714              1.612              1.252
 Vibration    34          0.730              1.567              1.148
 Vibration    35          0.736              1.550              1.113
 Vibration    36          0.742              1.533              1.079
 Vibration    37          0.815              1.347              0.776
 Vibration    38          0.819              1.337              0.763
 Vibration    39          0.909              1.132              0.537
 Vibration    40          0.911              1.129              0.534
 Vibration    41          0.912              1.126              0.532
 Vibration    42          0.917              1.115              0.521
 Vibration    43          0.918              1.113              0.520
 Vibration    44          0.930              1.089              0.498
 Vibration    45          0.934              1.081              0.491
 Vibration    46          0.935              1.078              0.488
                       Q            Log10(Q)             Ln(Q)
 Total Bot       0.124669D-85        -85.904241       -197.801826
 Total V=0       0.274053D+29         28.437834         65.480533
 Vib (Bot)       0.455308-101       -101.341695       -233.347875
 Vib (Bot)    1  0.658874D+01          0.818802          1.885362
 Vib (Bot)    2  0.630643D+01          0.799784          1.841570
 Vib (Bot)    3  0.619839D+01          0.792279          1.824289
 Vib (Bot)    4  0.598456D+01          0.777032          1.789183
 Vib (Bot)    5  0.359737D+01          0.555985          1.280203
 Vib (Bot)    6  0.346367D+01          0.539537          1.242330
 Vib (Bot)    7  0.318723D+01          0.503414          1.159154
 Vib (Bot)    8  0.317505D+01          0.501750          1.155323
 Vib (Bot)    9  0.317298D+01          0.501467          1.154671
 Vib (Bot)   10  0.302258D+01          0.480377          1.106110
 Vib (Bot)   11  0.297587D+01          0.473613          1.090535
 Vib (Bot)   12  0.281118D+01          0.448889          1.033604
 Vib (Bot)   13  0.210767D+01          0.323802          0.745581
 Vib (Bot)   14  0.191648D+01          0.282505          0.650493
 Vib (Bot)   15  0.167319D+01          0.223544          0.514729
 Vib (Bot)   16  0.160307D+01          0.204953          0.471922
 Vib (Bot)   17  0.128458D+01          0.108760          0.250430
 Vib (Bot)   18  0.127026D+01          0.103893          0.239222
 Vib (Bot)   19  0.120872D+01          0.082325          0.189560
 Vib (Bot)   20  0.984991D+00         -0.006568         -0.015123
 Vib (Bot)   21  0.936802D+00         -0.028352         -0.065283
 Vib (Bot)   22  0.849964D+00         -0.070599         -0.162561
 Vib (Bot)   23  0.843454D+00         -0.073938         -0.170249
 Vib (Bot)   24  0.822896D+00         -0.084655         -0.194925
 Vib (Bot)   25  0.817820D+00         -0.087342         -0.201113
 Vib (Bot)   26  0.805487D+00         -0.093942         -0.216308
 Vib (Bot)   27  0.776455D+00         -0.109884         -0.253017
 Vib (Bot)   28  0.704016D+00         -0.152417         -0.350954
 Vib (Bot)   29  0.686054D+00         -0.163642         -0.376799
 Vib (Bot)   30  0.678507D+00         -0.168446         -0.387861
 Vib (Bot)   31  0.618240D+00         -0.208843         -0.480879
 Vib (Bot)   32  0.604477D+00         -0.218620         -0.503392
 Vib (Bot)   33  0.562782D+00         -0.249660         -0.574863
 Vib (Bot)   34  0.519766D+00         -0.284192         -0.654377
 Vib (Bot)   35  0.505607D+00         -0.296187         -0.681995
 Vib (Bot)   36  0.491723D+00         -0.308279         -0.709839
 Vib (Bot)   37  0.373659D+00         -0.427525         -0.984412
 Vib (Bot)   38  0.368651D+00         -0.433385         -0.997905
 Vib (Bot)   39  0.282414D+00         -0.549114         -1.264383
 Vib (Bot)   40  0.281353D+00         -0.550749         -1.268146
 Vib (Bot)   41  0.280497D+00         -0.552072         -1.271193
 Vib (Bot)   42  0.276379D+00         -0.558495         -1.285982
 Vib (Bot)   43  0.275992D+00         -0.559103         -1.287383
 Vib (Bot)   44  0.267486D+00         -0.572698         -1.318686
 Vib (Bot)   45  0.264772D+00         -0.577128         -1.328886
 Vib (Bot)   46  0.263911D+00         -0.578542         -1.332142
 Vib (V=0)       0.100088D+14         13.000381         29.934483
 Vib (V=0)    1  0.710768D+01          0.851728          1.961176
 Vib (V=0)    2  0.682622D+01          0.834180          1.920771
 Vib (V=0)    3  0.671852D+01          0.827274          1.904868
 Vib (V=0)    4  0.650541D+01          0.813275          1.872634
 Vib (V=0)    5  0.413195D+01          0.616155          1.418750
 Vib (V=0)    6  0.399958D+01          0.602014          1.386189
 Vib (V=0)    7  0.372622D+01          0.571268          1.315393
 Vib (V=0)    8  0.371418D+01          0.569863          1.312157
 Vib (V=0)    9  0.371213D+01          0.569623          1.311606
 Vib (V=0)   10  0.356365D+01          0.551895          1.270786
 Vib (V=0)   11  0.351758D+01          0.546244          1.257773
 Vib (V=0)   12  0.335530D+01          0.525731          1.210541
 Vib (V=0)   13  0.266616D+01          0.425887          0.980640
 Vib (V=0)   14  0.248063D+01          0.394563          0.908514
 Vib (V=0)   15  0.224630D+01          0.351467          0.809283
 Vib (V=0)   16  0.217924D+01          0.338305          0.778975
 Vib (V=0)   17  0.187846D+01          0.273801          0.630450
 Vib (V=0)   18  0.186512D+01          0.270708          0.623327
 Vib (V=0)   19  0.180805D+01          0.257211          0.592250
 Vib (V=0)   20  0.160463D+01          0.205375          0.472893
 Vib (V=0)   21  0.156188D+01          0.193649          0.445893
 Vib (V=0)   22  0.148612D+01          0.172055          0.396171
 Vib (V=0)   23  0.148052D+01          0.170414          0.392392
 Vib (V=0)   24  0.146289D+01          0.165212          0.380414
 Vib (V=0)   25  0.145856D+01          0.163923          0.377447
 Vib (V=0)   26  0.144806D+01          0.160785          0.370222
 Vib (V=0)   27  0.142352D+01          0.153362          0.353130
 Vib (V=0)   28  0.136350D+01          0.134656          0.310058
 Vib (V=0)   29  0.134892D+01          0.129987          0.299307
 Vib (V=0)   30  0.134284D+01          0.128023          0.294783
 Vib (V=0)   31  0.129512D+01          0.112311          0.258606
 Vib (V=0)   32  0.128447D+01          0.108724          0.250346
 Vib (V=0)   33  0.125281D+01          0.097885          0.225389
 Vib (V=0)   34  0.122122D+01          0.086793          0.199849
 Vib (V=0)   35  0.121108D+01          0.083174          0.191515
 Vib (V=0)   36  0.120128D+01          0.079644          0.183387
 Vib (V=0)   37  0.112420D+01          0.050842          0.117068
 Vib (V=0)   38  0.112121D+01          0.049687          0.114410
 Vib (V=0)   39  0.107425D+01          0.031103          0.071618
 Vib (V=0)   40  0.107372D+01          0.030893          0.071133
 Vib (V=0)   41  0.107330D+01          0.030723          0.070742
 Vib (V=0)   42  0.107130D+01          0.029912          0.068874
 Vib (V=0)   43  0.107111D+01          0.029836          0.068700
 Vib (V=0)   44  0.106705D+01          0.028186          0.064901
 Vib (V=0)   45  0.106578D+01          0.027667          0.063705
 Vib (V=0)   46  0.106538D+01          0.027503          0.063327
 Electronic      0.100000D+01          0.000000          0.000000
 Translational   0.410619D+09          8.613439         19.833176
 Rotational      0.666829D+07          6.824014         15.712874
 
                                                  di-rhodium tetra-acetate dihydr
 ate
                                                             IR Spectrum
 
     33    33        333333332222                     11111111111111111111111111                                                     
     77    66        111100009999                     5554444444433333333000000099886666555555554433333322222222222111111            
     99    11        111188888888                     320765555318877433344441110099886677766555657653108875443331065522097666665333 
     55    00        888811009999                     191459988931099887754436644121911187322654170242263041308322279772773985507531 
 
      X     X        X X  XX  X X                     X XX  XX XX XX  XX  XX X    XX  XXXX X     XXX X     X XX    X     X  XX  XX   
      X              X                                  X   XX X  XX  XX              XX         XX  X                               
      X                                                 X      X  XX  XX              XX         XX                                  
      X                                                 X      X  XX  XX              XX         X                                   
      X                                                 X      X  XX  XX                         X                                   
      X                                                 X      X  XX  XX                                                             
      X                                                 X      X      XX                                                             
                                                        X      X      XX                                                             
                                                        X      X      XX                                                             
                                                        X      X      XX                                                             
                                                        X      X      XX                                                             
                                                        X      X      XX                                                             
                                                        X      X      XX                                                             
                                                        X      X      XX                                                             
                                                        X      X      XX                                                             
                                                        X      X      XX                                                             
                                                        X      X      XX                                                             
                                                        X      X                                                                     
                                                        X      X                                                                     
                                                               X                                                                     
 
 
                                                  di-rhodium tetra-acetate dihydr
 ate
                                                            Raman Spectrum
 
     33    33         33333332222                       11111111111111111111111111                                                   
     77    66         11110009999                       5554444444433333333300000099866655555554433333322222222222111111             
     99    11         11118888888                       3207665553188777433344411100988677765556576531088754433310655220976666653333 
     55    00         88881009999                       1914559889311999887754364441191187326541702422630413083222797727739855075331 
 
     X     X           X XX XX X                         X  XXX X  XX XXX  XX X XXXX XX   X X XX   X XXX X X    X  XX  X X   XX  XX  
     X     X           X XX XX X                                                                                                     
     X     X              X  X X                                                                                                     
           X              X  X X                                                                                                     
           X                 X                                                                                                       
           X                 X                                                                                                       
           X                 X                                                                                                       
           X                 X                                                                                                       
           X                 X                                                                                                       
           X                 X                                                                                                       
           X                 X                                                                                                       
           X                 X                                                                                                       
           X                 X                                                                                                       
           X                                                                                                                         
           X                                                                                                                         
           X                                                                                                                         
           X                                                                                                                         
           X                                                                                                                         
           X                                                                                                                         
           X                                                                                                                         
 
 -------------------------------------------------------------------
 Center     Atomic                   Forces (Hartrees/Bohr)
 Number     Number              X              Y              Z
 -------------------------------------------------------------------
      1        6           0.000000206    0.000000046    0.000000069
      2        6          -0.000000053   -0.000000019   -0.000000002
      3        6          -0.000000061   -0.000000142    0.000000052
      4        6          -0.000000073   -0.000000037   -0.000000001
      5        1           0.000000064    0.000000044   -0.000000006
      6        1           0.000000071   -0.000000007    0.000000014
      7        1           0.000000076   -0.000000006   -0.000000031
      8        1           0.000000065   -0.000000009   -0.000000001
      9        1           0.000000017   -0.000000073    0.000000041
     10        1           0.000000020   -0.000000077   -0.000000050
     11        8          -0.000000013   -0.000000020   -0.000000116
     12        8          -0.000000014   -0.000000015    0.000000055
     13        8           0.000000020    0.000000009    0.000000081
     14        8          -0.000000020   -0.000000015    0.000000081
     15        8           0.000000000   -0.000000030   -0.000000044
     16       45           0.000000000   -0.000000004   -0.000000054
     17       45          -0.000000001    0.000000005    0.000000056
     18        8           0.000000014   -0.000000009   -0.000000046
     19        8           0.000000026    0.000000018   -0.000000121
     20        6           0.000000060    0.000000142    0.000000053
     21        8           0.000000014    0.000000044    0.000000124
     22        8          -0.000000026   -0.000000012   -0.000000121
     23        8           0.000000000    0.000000030    0.000000044
     24        6          -0.000000206   -0.000000046   -0.000000069
     25        6           0.000000073    0.000000037    0.000000003
     26        6           0.000000053    0.000000019    0.000000009
     27        1          -0.000000064   -0.000000044    0.000000004
     28        1          -0.000000073    0.000000005   -0.000000019
     29        1          -0.000000074    0.000000008    0.000000025
     30        1          -0.000000065    0.000000009   -0.000000003
     31        1          -0.000000020    0.000000077   -0.000000051
     32        1          -0.000000016    0.000000074    0.000000039
     33        1           0.000000011    0.000000002   -0.000000027
     34        1          -0.000000011   -0.000000022   -0.000000027
     35        1           0.000000018   -0.000000002    0.000000018
     36        1          -0.000000018    0.000000021    0.000000019
 -------------------------------------------------------------------
 Cartesian Forces:  Max     0.000000206 RMS     0.000000057
 Leave Link  716 at Sun Nov 24 23:32:55 2013, MaxMem=   33554432 cpu:       0.4
 (Enter /net/cottusp/opt/gaussian/g09revA02_amd64/g09/l103.exe)

 GradGradGradGradGradGradGradGradGradGradGradGradGradGradGradGradGradGrad
 Berny optimization.
 Internal  Forces:  Max     0.000000109 RMS     0.000000022
 Search for a local minimum.
 Step number   1 out of a maximum of    2
 All quantities printed in internal units (Hartrees-Bohrs-Radians)
 Second derivative matrix not updated -- analytic derivatives used.
     Eigenvalues ---   -0.00099  -0.00095   0.00003   0.00006   0.00007
     Eigenvalues ---    0.00008   0.00008   0.00009   0.00094   0.00639
     Eigenvalues ---    0.00712   0.00713   0.00787   0.00880   0.00884
     Eigenvalues ---    0.00952   0.01104   0.01129   0.02238   0.02488
     Eigenvalues ---    0.02845   0.02906   0.02925   0.02968   0.02973
     Eigenvalues ---    0.03698   0.03800   0.03837   0.03859   0.03975
     Eigenvalues ---    0.05000   0.05538   0.05546   0.05548   0.05548
     Eigenvalues ---    0.05652   0.05657   0.05657   0.05661   0.05932
     Eigenvalues ---    0.06608   0.07800   0.07898   0.07975   0.08891
     Eigenvalues ---    0.09291   0.09387   0.09755   0.09800   0.10762
     Eigenvalues ---    0.11012   0.11544   0.11980   0.12210   0.12218
     Eigenvalues ---    0.12235   0.12346   0.12867   0.12875   0.12881
     Eigenvalues ---    0.12881   0.12908   0.13920   0.13941   0.13946
     Eigenvalues ---    0.13954   0.18863   0.18927   0.19424   0.19426
     Eigenvalues ---    0.19501   0.20049   0.20180   0.21065   0.29576
     Eigenvalues ---    0.29635   0.29682   0.30322   0.32743   0.32745
     Eigenvalues ---    0.32747   0.32749   0.33687   0.33688   0.33691
     Eigenvalues ---    0.33692   0.33876   0.33878   0.33914   0.33958
     Eigenvalues ---    0.41607   0.41762   0.42428   0.44679   0.46245
     Eigenvalues ---    0.47194   0.47452   0.48376   0.48377   0.49090
     Eigenvalues ---    0.50503   0.505131000.000001000.000001000.00000
     Eigenvalues --- 1000.000001000.000001000.000001000.000001000.00000
     Eigenvalues --- 1000.000001000.000001000.000001000.000001000.00000
     Eigenvalues --- 1000.000001000.000001000.000001000.000001000.00000
     Eigenvalues --- 1000.000001000.000001000.000001000.000001000.00000
     Eigenvalues --- 1000.000001000.000001000.000001000.000001000.00000
     Eigenvalues --- 1000.000001000.000001000.000001000.000001000.00000
     Eigenvalues --- 1000.000001000.000001000.000001000.000001000.00000
     Eigenvalues --- 1000.000001000.000001000.000001000.000001000.00000
     Eigenvalues --- 1000.000001000.000001000.000001000.000001000.00000
     Eigenvalues --- 1000.000001000.000001000.000001000.000001000.00000
     Eigenvalues --- 1000.000001000.000001000.000001000.000001000.00000
     Eigenvalues --- 1000.000001000.000001000.000001000.000001000.00000
     Eigenvalues --- 1000.000001000.000001000.000001000.000001000.00000
     Eigenvalues --- 1000.000001000.000001000.000001000.000001000.00000
     Eigenvalues --- 1000.000001000.000001000.000001000.000001000.00000
     Eigenvalues --- 1000.000001000.000001000.000001000.000001000.00000
     Eigenvalues --- 1000.000001000.000001000.000001000.000001000.00000
     Eigenvalues --- 1000.000001000.000001000.000001000.000001000.00000
     Eigenvalues --- 1000.000001000.000001000.000001000.000001000.00000
     Eigenvalues --- 1000.000001000.000001000.000001000.000001000.00000
     Eigenvalues --- 1000.000001000.000001000.000001000.000001000.00000
     Eigenvalues --- 1000.000001000.000001000.000001000.000001000.00000
     Eigenvalues --- 1000.000001000.000001000.000001000.000001000.00000
     Eigenvalues --- 1000.000001000.000001000.000001000.000001000.00000
     Eigenvalues --- 1000.000001000.000001000.000001000.000001000.00000
     Eigenvalues --- 1000.000001000.000001000.000001000.000001000.00000
     Eigenvalues --- 1000.000001000.000001000.000001000.000001000.00000
 Eigenvalue     1 is  -9.92D-04 should be greater than     0.000000 Eigenvector:
                          D58       D59      D109      D104       D43
   1                    0.31576  -0.31576   0.16030  -0.16030   0.16028
                          D46       D84       D85       D50       D56
   1                   -0.16028   0.15927  -0.15927   0.15924  -0.15924
 Eigenvalue     2 is  -9.47D-04 should be greater than     0.000000 Eigenvector:
                          D60       D57       D46       D43      D104
   1                   -0.31406   0.31406  -0.16031   0.16031   0.16029
                         D109       D54       D52       D83       D86
   1                   -0.16029  -0.15950   0.15950   0.15947  -0.15947
 Angle between quadratic step and forces=  86.10 degrees.
 Linear search not attempted -- first point.
 Iteration  1 RMS(Cart)=  0.00000400 RMS(Int)=  0.00000000
 Iteration  2 RMS(Cart)=  0.00000000 RMS(Int)=  0.00000000
 Variable       Old X    -DE/DX   Delta X   Delta X   Delta X     New X
                                 (Linear)    (Quad)   (Total)
    R1        2.87099   0.00000   0.00000   0.00000   0.00000   2.87099
    R2        2.48369   0.00000   0.00000   0.00000   0.00000   2.48369
    R3        2.48369   0.00000   0.00000   0.00000   0.00000   2.48369
    R4        2.09050   0.00000   0.00000   0.00000   0.00000   2.09050
    R5        2.08185   0.00000   0.00000   0.00000   0.00000   2.08185
    R6        2.08185   0.00000   0.00000   0.00000   0.00000   2.08185
    R7        2.87039   0.00000   0.00000   0.00000   0.00000   2.87039
    R8        2.48397   0.00000   0.00000   0.00000   0.00000   2.48397
    R9        2.48397   0.00000   0.00000   0.00000   0.00000   2.48397
   R10        2.09048   0.00000   0.00000   0.00000   0.00000   2.09048
   R11        2.08183   0.00000   0.00000   0.00000   0.00000   2.08183
   R12        2.08183   0.00000   0.00000   0.00000   0.00000   2.08183
   R13        3.92528   0.00000   0.00000   0.00000   0.00000   3.92528
   R14        3.92528   0.00000   0.00000   0.00000   0.00000   3.92528
   R15        3.92426   0.00000   0.00000   0.00000   0.00000   3.92426
   R16        3.92426   0.00000   0.00000   0.00000   0.00000   3.92426
   R17        2.48397   0.00000   0.00000   0.00000   0.00000   2.48397
   R18        4.29929   0.00000   0.00000   0.00000   0.00000   4.29929
   R19        1.85491   0.00000   0.00000   0.00000   0.00000   1.85491
   R20        1.85491   0.00000   0.00000   0.00000   0.00000   1.85491
   R21        4.63025   0.00000   0.00000   0.00000   0.00000   4.63025
   R22        3.92528   0.00000   0.00000   0.00000   0.00000   3.92528
   R23        3.92426   0.00000   0.00000   0.00000   0.00000   3.92426
   R24        3.92528   0.00000   0.00000   0.00000   0.00000   3.92528
   R25        3.92426   0.00000   0.00000   0.00000   0.00000   3.92426
   R26        4.29929   0.00000   0.00000   0.00000   0.00000   4.29929
   R27        2.48369   0.00000   0.00000   0.00000   0.00000   2.48369
   R28        2.48397   0.00000   0.00000   0.00000   0.00000   2.48397
   R29        2.87039   0.00000   0.00000   0.00000   0.00000   2.87039
   R30        2.48369   0.00000   0.00000   0.00000   0.00000   2.48369
   R31        1.85491   0.00000   0.00000   0.00000   0.00000   1.85491
   R32        1.85491   0.00000   0.00000   0.00000   0.00000   1.85491
   R33        2.87099   0.00000   0.00000   0.00000   0.00000   2.87099
   R34        2.09048   0.00000   0.00000   0.00000   0.00000   2.09048
   R35        2.08183   0.00000   0.00000   0.00000   0.00000   2.08183
   R36        2.08183   0.00000   0.00000   0.00000   0.00000   2.08183
   R37        2.09050   0.00000   0.00000   0.00000   0.00000   2.09050
   R38        2.08185   0.00000   0.00000   0.00000   0.00000   2.08185
   R39        2.08185   0.00000   0.00000   0.00000   0.00000   2.08185
    A1        2.04744   0.00000   0.00000   0.00000   0.00000   2.04744
    A2        2.04744   0.00000   0.00000   0.00000   0.00000   2.04744
    A3        2.18810   0.00000   0.00000   0.00000   0.00000   2.18810
    A4        1.90863   0.00000   0.00000   0.00000   0.00000   1.90863
    A5        1.92162   0.00000   0.00000   0.00000   0.00000   1.92162
    A6        1.92162   0.00000   0.00000   0.00000   0.00000   1.92162
    A7        1.88966   0.00000   0.00000   0.00000   0.00000   1.88966
    A8        1.88966   0.00000   0.00000   0.00000   0.00000   1.88966
    A9        1.93195   0.00000   0.00000   0.00000   0.00000   1.93195
   A10        2.04856   0.00000   0.00000   0.00000   0.00000   2.04856
   A11        2.04856   0.00000   0.00000   0.00000   0.00000   2.04856
   A12        2.18585   0.00000   0.00000   0.00000   0.00000   2.18585
   A13        1.90887   0.00000   0.00000   0.00000   0.00000   1.90887
   A14        1.92220   0.00000   0.00000   0.00000   0.00000   1.92220
   A15        1.92220   0.00000   0.00000   0.00000   0.00000   1.92220
   A16        1.88994   0.00000   0.00000   0.00000   0.00000   1.88994
   A17        1.88994   0.00000   0.00000   0.00000   0.00000   1.88994
   A18        1.93001   0.00000   0.00000   0.00000   0.00000   1.93001
   A19        2.07510   0.00000   0.00000   0.00000   0.00000   2.07510
   A20        2.07510   0.00000   0.00000   0.00000   0.00000   2.07510
   A21        2.07650   0.00000   0.00000   0.00000   0.00000   2.07650
   A22        2.07650   0.00000   0.00000   0.00000   0.00000   2.07650
   A23        2.14985   0.00000   0.00000   0.00000   0.00000   2.14985
   A24        2.14985   0.00000   0.00000   0.00000   0.00000   2.14985
   A25        1.98349   0.00000   0.00000   0.00000   0.00000   1.98349
   A26        1.56989   0.00000   0.00000   0.00000   0.00000   1.56989
   A27        1.57016   0.00000   0.00000   0.00000   0.00000   1.57016
   A28        1.59841   0.00000   0.00000   0.00000   0.00000   1.59841
   A29        1.54318   0.00000   0.00000   0.00000   0.00000   1.54318
   A30        1.59868   0.00000   0.00000   0.00000   0.00000   1.59868
   A31        1.54291   0.00000   0.00000   0.00000   0.00000   1.54291
   A32        1.57016   0.00000   0.00000   0.00000   0.00000   1.57016
   A33        1.59868   0.00000   0.00000   0.00000   0.00000   1.59868
   A34        1.54291   0.00000   0.00000   0.00000   0.00000   1.54291
   A35        1.56989   0.00000   0.00000   0.00000   0.00000   1.56989
   A36        1.59841   0.00000   0.00000   0.00000   0.00000   1.59841
   A37        1.54318   0.00000   0.00000   0.00000   0.00000   1.54318
   A38        1.54318   0.00000   0.00000   0.00000   0.00000   1.54318
   A39        1.56989   0.00000   0.00000   0.00000   0.00000   1.56989
   A40        1.57016   0.00000   0.00000   0.00000   0.00000   1.57016
   A41        1.59841   0.00000   0.00000   0.00000   0.00000   1.59841
   A42        1.54291   0.00000   0.00000   0.00000   0.00000   1.54291
   A43        1.54318   0.00000   0.00000   0.00000   0.00000   1.54318
   A44        1.54291   0.00000   0.00000   0.00000   0.00000   1.54291
   A45        1.57016   0.00000   0.00000   0.00000   0.00000   1.57016
   A46        1.59868   0.00000   0.00000   0.00000   0.00000   1.59868
   A47        1.56989   0.00000   0.00000   0.00000   0.00000   1.56989
   A48        1.59841   0.00000   0.00000   0.00000   0.00000   1.59841
   A49        1.59868   0.00000   0.00000   0.00000   0.00000   1.59868
   A50        2.07510   0.00000   0.00000   0.00000   0.00000   2.07510
   A51        2.07650   0.00000   0.00000   0.00000   0.00000   2.07650
   A52        2.18585   0.00000   0.00000   0.00000   0.00000   2.18585
   A53        2.04856   0.00000   0.00000   0.00000   0.00000   2.04856
   A54        2.04856   0.00000   0.00000   0.00000   0.00000   2.04856
   A55        2.07510   0.00000   0.00000   0.00000   0.00000   2.07510
   A56        2.07650   0.00000   0.00000   0.00000   0.00000   2.07650
   A57        2.14985   0.00000   0.00000   0.00000   0.00000   2.14985
   A58        2.14985   0.00000   0.00000   0.00000   0.00000   2.14985
   A59        1.98349   0.00000   0.00000   0.00000   0.00000   1.98349
   A60        2.18810   0.00000   0.00000   0.00000   0.00000   2.18810
   A61        2.04744   0.00000   0.00000   0.00000   0.00000   2.04744
   A62        2.04744   0.00000   0.00000   0.00000   0.00000   2.04744
   A63        1.90887   0.00000   0.00000   0.00000   0.00000   1.90887
   A64        1.92220   0.00000   0.00000   0.00000   0.00000   1.92220
   A65        1.92220   0.00000   0.00000   0.00000   0.00000   1.92220
   A66        1.88994   0.00000   0.00000   0.00000   0.00000   1.88994
   A67        1.88994   0.00000   0.00000   0.00000   0.00000   1.88994
   A68        1.93001   0.00000   0.00000   0.00000   0.00000   1.93001
   A69        1.90863   0.00000   0.00000   0.00000   0.00000   1.90863
   A70        1.92162   0.00000   0.00000   0.00000   0.00000   1.92162
   A71        1.92162   0.00000   0.00000   0.00000   0.00000   1.92162
   A72        1.88966   0.00000   0.00000   0.00000   0.00000   1.88966
   A73        1.88966   0.00000   0.00000   0.00000   0.00000   1.88966
   A74        1.93195   0.00000   0.00000   0.00000   0.00000   1.93195
    D1        1.56036   0.00000   0.00000  -0.00001  -0.00001   1.56035
    D2       -2.64865   0.00000   0.00000  -0.00001  -0.00001  -2.64866
    D3       -0.51381   0.00000   0.00000  -0.00001  -0.00001  -0.51382
    D4       -1.56036   0.00000   0.00000  -0.00001  -0.00001  -1.56037
    D5        0.51381   0.00000   0.00000  -0.00001  -0.00001   0.51381
    D6        2.64865   0.00000   0.00000  -0.00001  -0.00001   2.64865
    D7       -3.10255   0.00000   0.00000   0.00000   0.00000  -3.10255
    D8        0.01630   0.00000   0.00000   0.00000   0.00000   0.01630
    D9        3.10255   0.00000   0.00000   0.00000   0.00000   3.10255
   D10       -0.01630   0.00000   0.00000   0.00000   0.00000  -0.01630
   D11        1.56016   0.00000   0.00000   0.00001   0.00001   1.56017
   D12       -2.64802   0.00000   0.00000   0.00001   0.00001  -2.64801
   D13       -0.51485   0.00000   0.00000   0.00001   0.00001  -0.51484
   D14       -1.56016   0.00000   0.00000   0.00001   0.00001  -1.56015
   D15        0.51485   0.00000   0.00000   0.00001   0.00001   0.51486
   D16        2.64802   0.00000   0.00000   0.00001   0.00001   2.64803
   D17       -3.10196   0.00000   0.00000   0.00000   0.00000  -3.10196
   D18        0.01650   0.00000   0.00000   0.00000   0.00000   0.01650
   D19        3.10196   0.00000   0.00000   0.00000   0.00000   3.10196
   D20       -0.01650   0.00000   0.00000   0.00000   0.00000  -0.01650
   D21       -1.55041   0.00000   0.00000   0.00000   0.00000  -1.55041
   D22        1.53543   0.00000   0.00000   0.00000   0.00000   1.53543
   D23        3.13411   0.00000   0.00000   0.00000   0.00000   3.13411
   D24       -0.00748   0.00000   0.00000   0.00000   0.00000  -0.00748
   D25       -0.01475   0.00000   0.00000   0.00000   0.00000  -0.01475
   D26        0.00748   0.00000   0.00000   0.00000   0.00000   0.00748
   D27        1.55041   0.00000   0.00000   0.00000   0.00000   1.55041
   D28       -1.53543   0.00000   0.00000   0.00000   0.00000  -1.53543
   D29       -3.13411   0.00000   0.00000   0.00000   0.00000  -3.13411
   D30        0.01475   0.00000   0.00000   0.00000   0.00000   0.01475
   D31        1.53560   0.00000   0.00000   0.00000   0.00000   1.53560
   D32        3.13400   0.00000   0.00000   0.00000   0.00000   3.13400
   D33       -0.00759   0.00000   0.00000   0.00000   0.00000  -0.00759
   D34       -1.55078   0.00000   0.00000   0.00000   0.00000  -1.55078
   D35       -1.55078   0.00000   0.00000   0.00000   0.00000  -1.55078
   D36        3.13400   0.00000   0.00000   0.00000   0.00000   3.13400
   D37       -0.00759   0.00000   0.00000   0.00000   0.00000  -0.00759
   D38        1.53560   0.00000   0.00000   0.00000   0.00000   1.53560
   D39        0.01650   0.00000   0.00000   0.00000   0.00000   0.01650
   D40       -3.10196   0.00000   0.00000   0.00000   0.00000  -3.10196
   D41        1.56501   0.00000   0.00000   0.00000   0.00000   1.56501
   D42       -0.00565   0.00000   0.00000   0.00000   0.00000  -0.00565
   D43        3.13594   0.00000   0.00000   0.00000   0.00000   3.13594
   D44       -1.57659   0.00000   0.00000   0.00000   0.00000  -1.57658
   D45       -1.57658   0.00000   0.00000   0.00000   0.00000  -1.57658
   D46        3.13594   0.00000   0.00000   0.00000   0.00000   3.13595
   D47       -0.00565   0.00000   0.00000   0.00000   0.00000  -0.00565
   D48        1.56501   0.00000   0.00000   0.00000   0.00000   1.56501
   D49        1.56501   0.00000   0.00000   0.00000   0.00000   1.56501
   D50       -0.00565   0.00000   0.00000   0.00000   0.00000  -0.00565
   D51       -1.57659   0.00000   0.00000   0.00000   0.00000  -1.57658
   D52        3.13594   0.00000   0.00000   0.00000   0.00000   3.13594
   D53       -1.57658   0.00000   0.00000   0.00001   0.00001  -1.57658
   D54        3.13594   0.00000   0.00000   0.00001   0.00001   3.13595
   D55        1.56501   0.00000   0.00000   0.00001   0.00001   1.56501
   D56       -0.00565   0.00000   0.00000   0.00001   0.00001  -0.00565
   D57        3.14159   0.00000   0.00000   0.00000   0.00000  -3.14159
   D58        0.00000   0.00000   0.00000   0.00000   0.00000  -0.00001
   D59        0.00000   0.00000   0.00000   0.00000   0.00000   0.00001
   D60        3.14159   0.00000   0.00000   0.00000   0.00000  -3.14159
   D61        0.00000   0.00000   0.00000   0.00000   0.00000   0.00000
   D62       -1.57066   0.00000   0.00000   0.00000   0.00000  -1.57066
   D63        3.14159   0.00000   0.00000   0.00000   0.00000  -3.14159
   D64        1.57093   0.00000   0.00000   0.00000   0.00000   1.57093
   D65        1.57066   0.00000   0.00000   0.00000   0.00000   1.57066
   D66        0.00000   0.00000   0.00000   0.00000   0.00000   0.00000
   D67       -1.57093   0.00000   0.00000   0.00000   0.00000  -1.57093
   D68        3.14159   0.00000   0.00000   0.00000   0.00000  -3.14159
   D69       -1.57093   0.00000   0.00000   0.00000   0.00000  -1.57093
   D70        3.14159   0.00000   0.00000   0.00000   0.00000  -3.14159
   D71        1.57066   0.00000   0.00000   0.00000   0.00000   1.57066
   D72        0.00000   0.00000   0.00000   0.00000   0.00000   0.00000
   D73        3.14159   0.00000   0.00000   0.00000   0.00000  -3.14159
   D74        1.57093   0.00000   0.00000   0.00000   0.00000   1.57093
   D75        0.00000   0.00000   0.00000   0.00000   0.00000   0.00000
   D76       -1.57066   0.00000   0.00000   0.00000   0.00000  -1.57066
   D77        1.53543   0.00000   0.00000   0.00000   0.00000   1.53543
   D78       -1.55041   0.00000   0.00000   0.00000   0.00000  -1.55041
   D79        3.13411   0.00000   0.00000   0.00000   0.00000   3.13411
   D80       -0.00748   0.00000   0.00000   0.00000   0.00000  -0.00748
   D81        1.57659   0.00000   0.00000   0.00000   0.00000   1.57659
   D82       -1.56501   0.00000   0.00000   0.00000   0.00000  -1.56501
   D83       -3.13594   0.00000   0.00000   0.00000   0.00000  -3.13594
   D84        0.00565   0.00000   0.00000   0.00000   0.00000   0.00565
   D85        0.00565   0.00000   0.00000   0.00000   0.00000   0.00565
   D86       -3.13594   0.00000   0.00000   0.00000   0.00000  -3.13595
   D87       -1.56501   0.00000   0.00000   0.00000   0.00000  -1.56501
   D88        1.57658   0.00000   0.00000   0.00000   0.00000   1.57658
   D89       -1.53560   0.00000   0.00000   0.00000   0.00000  -1.53560
   D90        0.00759   0.00000   0.00000   0.00000   0.00000   0.00759
   D91        1.55078   0.00000   0.00000   0.00000   0.00000   1.55078
   D92       -3.13400   0.00000   0.00000   0.00000   0.00000  -3.13400
   D93        0.01496   0.00000   0.00000   0.00000   0.00000   0.01496
   D94        0.00748   0.00000   0.00000   0.00000   0.00000   0.00748
   D95       -1.53543   0.00000   0.00000   0.00000   0.00000  -1.53543
   D96        1.55041   0.00000   0.00000   0.00000   0.00000   1.55041
   D97       -3.13411   0.00000   0.00000   0.00000   0.00000  -3.13411
   D98        1.55078   0.00000   0.00000   0.00000   0.00000   1.55078
   D99        0.00759   0.00000   0.00000   0.00000   0.00000   0.00759
   D100      -1.53560   0.00000   0.00000   0.00000   0.00000  -1.53560
   D101      -3.13400   0.00000   0.00000   0.00000   0.00000  -3.13400
   D102       1.57659   0.00000   0.00000   0.00000   0.00000   1.57658
   D103      -1.56501   0.00000   0.00000   0.00000   0.00000  -1.56501
   D104      -3.13594   0.00000   0.00000   0.00000   0.00000  -3.13594
   D105       0.00565   0.00000   0.00000   0.00000   0.00000   0.00565
   D106      -1.56501   0.00000   0.00000   0.00000   0.00000  -1.56501
   D107       1.57658   0.00000   0.00000   0.00000   0.00000   1.57658
   D108       0.00565   0.00000   0.00000   0.00000   0.00000   0.00565
   D109      -3.13594   0.00000   0.00000   0.00000   0.00000  -3.13595
   D110       0.01630   0.00000   0.00000   0.00000   0.00000   0.01630
   D111      -3.10255   0.00000   0.00000   0.00000   0.00000  -3.10255
   D112      -0.01650   0.00000   0.00000   0.00000   0.00000  -0.01650
   D113       3.10196   0.00000   0.00000   0.00000   0.00000   3.10196
   D114       1.56016   0.00000   0.00000  -0.00001  -0.00001   1.56014
   D115      -0.51485   0.00000   0.00000  -0.00001  -0.00001  -0.51486
   D116      -2.64802   0.00000   0.00000  -0.00001  -0.00001  -2.64803
   D117      -1.56016   0.00000   0.00000  -0.00001  -0.00001  -1.56017
   D118       2.64802   0.00000   0.00000  -0.00001  -0.00001   2.64801
   D119       0.51485   0.00000   0.00000  -0.00001  -0.00001   0.51484
   D120      -0.01630   0.00000   0.00000   0.00000   0.00000  -0.01630
   D121       3.10255   0.00000   0.00000   0.00000   0.00000   3.10255
   D122       1.56036   0.00000   0.00000   0.00001   0.00001   1.56037
   D123      -0.51381   0.00000   0.00000   0.00001   0.00001  -0.51381
   D124      -2.64865   0.00000   0.00000   0.00001   0.00001  -2.64865
   D125      -1.56036   0.00000   0.00000   0.00001   0.00001  -1.56035
   D126       2.64865   0.00000   0.00000   0.00001   0.00001   2.64866
   D127       0.51381   0.00000   0.00000   0.00001   0.00001   0.51382
         Item               Value     Threshold  Converged?
 Maximum Force            0.000000     0.000002     YES
 RMS     Force            0.000000     0.000001     YES
 Maximum Displacement     0.000026     0.000006     NO 
 RMS     Displacement     0.000004     0.000004     YES
 Predicted change in Energy=-7.491030D-13
 GradGradGradGradGradGradGradGradGradGradGradGradGradGradGradGradGradGrad

 Leave Link  103 at Sun Nov 24 23:32:55 2013, MaxMem=   33554432 cpu:       0.6
 (Enter /net/cottusp/opt/gaussian/g09revA02_amd64/g09/l9999.exe)

 Test job not archived.
 1\1\GINC-CASEGROUP1\Freq\RBP86\LANL2DZ\C8H16O10Rh2\CASE\24-Nov-2013\0\
 \#P Geom=AllCheck Guess=TCheck SCRF=Check Test GenChk RBP86/LANL2DZ Fr
 eq\\di-rhodium tetra-acetate dihydrate\\0,1\C,-0.0086361664,2.67944000
 28,-0.0000000182\C,-0.0610337258,4.1977979812,-0.0000002707\C,2.680261
 3005,0.0091186294,-0.0000000192\C,4.1982692409,0.062469407,-0.00000000
 18\H,-1.1167709095,4.5282410395,-0.000000459\H,0.4246701123,4.59339413
 99,0.9062344153\H,0.4246703383,4.5933938308,-0.9062349886\H,4.52828983
 53,1.1183306025,0.0000001911\H,4.594794217,-0.4236067383,0.9056184508\
 H,4.5947942308,-0.4236064241,-0.9056186106\O,-0.0000192482,2.076378775
 5,-1.167755549\O,-0.0000191859,2.0763790021,1.1677554448\O,2.075819820
 8,0.0003001734,-1.1672075164\O,-2.0758198143,-0.0003005507,-1.16720749
 92\O,-0.0000000119,0.0000000238,-3.5001956339\Rh,0.0000000071,-0.00000
 01247,-1.2251100943\Rh,-0.000000002,0.0000001229,1.2251100834\O,0.0000
 192969,-2.0763789929,-1.1677554767\O,2.0758198174,0.0003004031,1.16720
 74863\C,-2.6802612954,-0.0091186289,-0.0000000014\O,0.0000191336,-2.07
 63787882,1.1677555172\O,-2.0758198138,-0.000300026,1.1672075036\O,0.00
 00000171,-0.0000000233,3.5001956403\C,0.0086361625,-2.6794400046,-0.00
 00000188\C,-4.1982692358,-0.0624694045,0.0000000382\C,0.0610337149,-4.
 1977979833,0.0000002452\H,1.1167708971,-4.5282410462,0.0000005372\H,-0
 .4246700414,-4.5933941437,-0.9062344798\H,-0.4246704347,-4.5933938268,
 0.9062349242\H,-4.5282898317,-1.1183305996,0.0000000162\H,-4.594794248
 5,0.4236066127,-0.9056184624\H,-4.5947941879,0.4236065557,0.905618599\
 H,-0.8215505931,-0.0047639733,4.0373442959\H,0.8215506456,0.0047623544
 ,4.0373442817\H,0.8215505878,0.0047639787,-4.0373442922\H,-0.821550629
 6,-0.0047623564,-4.0373442782\\Version=AM64L-G09RevA.02\HF=-1286.10632
 68\RMSD=5.689e-09\RMSF=5.669e-08\ZeroPoint=0.2485875\Thermal=0.2768218
 \Dipole=0.,0.,0.000003\DipoleDeriv=0.1243521,-0.1044782,0.,-0.0394087,
 1.1494855,-0.0000002,0.,-0.0000008,0.9985353,0.035953,0.1172436,0.,0.0
 356934,-0.3931006,0.0000001,0.,0.0000003,0.0837624,1.1479494,0.0394426
 ,0.,0.1052615,0.130367,0.,-0.0000002,0.0000003,1.0137879,-0.3892947,-0
 .0360507,0.,-0.1203616,0.0346582,0.,0.,0.,0.0836499,-0.0825799,0.07899
 4,0.,0.0237283,0.0240607,0.,0.,0.,0.1145678,0.0723447,-0.0660214,-0.07
 6216,-0.01938,0.0367446,-0.0151886,-0.081535,-0.0848518,-0.0311742,0.0
 723447,-0.0660214,0.0762161,-0.01938,0.0367446,0.0151886,0.081535,0.08
 48517,-0.0311741,0.0249636,-0.023262,0.,-0.0772177,-0.0804953,0.,0.,0.
 ,0.1147191,0.037616,0.0191647,-0.0148063,0.0662743,0.0729438,0.0759624
 ,-0.0850179,0.0820098,-0.0319702,0.037616,0.0191648,0.0148064,0.066274
 3,0.0729438,-0.0759623,0.0850179,-0.0820098,-0.0319703,-0.1571357,0.01
 68046,0.0041745,0.0096597,-0.9745629,-0.1871318,0.0087155,-0.2005692,-
 0.6306761,-0.1571347,0.0168047,-0.0041746,0.0096598,-0.9745621,0.18713
 21,-0.0087155,0.2005698,-0.6306752,-0.9537607,-0.009387,-0.1891485,-0.
 0168858,-0.159274,-0.0044241,-0.1925881,-0.0088188,-0.6468076,-0.95376
 07,-0.0093869,0.1891485,-0.0168858,-0.159274,0.0044239,0.1925881,0.008
 8185,-0.6468076,-0.2622481,0.0014931,0.,0.0035642,-0.6408595,-0.000000
 9,0.,-0.0000005,-0.6156108,0.9231491,0.0064559,0.,-0.0076215,1.0143787
 ,-0.0000002,0.,-0.0000002,0.6553587,0.9231492,0.0064559,0.,-0.0076215,
 1.0143788,-0.0000002,0.,-0.0000002,0.6553597,-0.1571348,0.0168046,-0.0
 041745,0.0096597,-0.9745622,0.1871321,-0.0087154,0.20057,-0.6306752,-0
 .9537607,-0.009387,0.1891486,-0.0168858,-0.1592738,0.004424,0.1925883,
 0.0088186,-0.6468074,1.1479494,0.0394426,0.,0.1052615,0.130367,0.00000
 02,0.0000002,0.0000004,1.0137879,-0.1571356,0.0168046,0.0041746,0.0096
 597,-0.9745629,-0.1871318,0.0087155,-0.200569,-0.630676,-0.9537606,-0.
 009387,-0.1891486,-0.0168858,-0.1592738,-0.0044242,-0.1925882,-0.00881
 89,-0.6468074,-0.2622477,0.0014931,0.,0.0035642,-0.6408595,-0.0000009,
 0.,-0.0000005,-0.6156109,0.1243521,-0.1044782,0.,-0.0394087,1.1494855,
 -0.0000002,0.,-0.0000011,0.9985353,-0.3892947,-0.0360507,0.,-0.1203616
 ,0.0346582,0.,0.,0.,0.0836499,0.035953,0.1172436,0.,0.0356934,-0.39310
 07,0.0000001,0.,0.0000005,0.0837624,-0.0825798,0.078994,0.,0.0237284,0
 .0240609,0.,0.,0.,0.114568,0.0723448,-0.0660214,-0.076216,-0.0193799,0
 .0367451,-0.0151884,-0.0815349,-0.0848517,-0.0311738,0.0723447,-0.0660
 213,0.0762161,-0.0193799,0.036745,0.0151884,0.081535,0.0848516,-0.0311
 738,0.0249635,-0.023262,0.,-0.0772178,-0.0804953,0.,0.,0.,0.1147191,0.
 0376159,0.0191647,-0.0148064,0.0662743,0.0729438,0.0759623,-0.0850179,
 0.0820098,-0.0319703,0.0376159,0.0191648,0.0148063,0.0662744,0.0729437
 ,-0.0759624,0.0850179,-0.0820098,-0.0319703,0.2398128,-0.0004803,0.111
 5547,-0.0014874,0.4049004,0.0006048,0.0374345,0.0005531,0.1162419,0.23
 98128,-0.0004801,-0.1115547,-0.0014872,0.4049004,-0.0006038,-0.0374345
 ,-0.0005527,0.1162419,0.2398129,-0.0004803,0.1115546,-0.0014874,0.4049
 004,0.0006048,0.0374344,0.0005531,0.1162421,0.2398129,-0.00048,-0.1115
 546,-0.0014871,0.4049003,-0.0006038,-0.0374344,-0.0005527,0.1162421\Po
 lar=209.5175552,0.0421414,205.4359432,0.0000003,-0.0000111,182.3163936
 \PolarDeriv=-0.3549144,2.019329,1.3511595,-0.0000021,0.0000005,0.22196
 8,0.4080725,-0.6009874,2.9834003,0.0000007,-0.0000035,3.1597877,-0.000
 0039,0.0000008,-0.0000055,0.4661624,-2.9451922,-0.000001,3.058003,-3.3
 508444,0.5159118,0.0000012,-0.0000013,-2.1568648,-1.2727132,0.4988989,
 2.8448908,-0.0000004,-0.0000003,-1.9380544,0.000001,-0.0000011,-0.0000
 052,-2.5063064,-2.4985517,-0.0000015,4.2610956,0.6259736,0.3590583,-0.
 0000018,-0.0000003,3.6027231,-1.4022423,2.0388244,0.3297996,-0.0000008
 ,-0.0000006,-0.2099941,-0.0000039,0.0000015,-0.0000051,-2.5080599,-0.4
 650362,0.,2.2034102,-0.5116404,-1.2404481,-0.0000001,0.,-1.9442433,-0.
 5940871,-3.3737787,-3.0395156,0.0000002,-0.0000013,2.1433353,-0.000002
 ,-0.0000006,-0.000001,-2.5359226,2.5220211,0.0000004,-5.8660158,4.2591
 836,-6.6856039,-0.0000007,0.0000011,-0.6825032,1.1705991,-3.0758809,4.
 8499514,0.0000001,-0.0000006,0.4411906,-0.0000002,0.0000007,-0.0000014
 ,-0.9150306,1.9602685,0.0000005,1.3668877,2.0088185,2.5594655,1.322928
 9,0.9517842,1.293894,0.7246863,1.4418995,3.916921,0.2787373,2.839482,0
 .9836953,1.2139065,0.92226,5.3733065,1.4484542,3.0568649,3.9245484,1.3
 668882,2.0088184,2.5594661,-1.3229295,-0.9517843,1.2938943,0.7246853,1
 .4419,3.9169161,-0.2787375,-2.8394811,0.9836929,-1.2139068,-0.9222599,
 -5.3733046,1.4484545,3.0568638,-3.9245472,4.9877163,3.0875868,1.196412
 4,0.,0.,0.4385654,6.7262066,4.2662348,5.8921208,0.,0.0000006,0.6792851
 ,0.0000004,0.0000003,0.0000004,1.9569291,0.9096246,-0.000001,3.9506208
 ,-1.4451723,0.7394703,2.8212952,-0.2792805,0.9709554,-2.5138853,2.0076
 134,-1.3793973,-0.9450946,1.3213616,-1.2846568,5.3362145,-0.9198974,1.
 2247851,3.0349043,-1.4519499,3.9069212,3.9506203,-1.445171,0.7394693,-
 2.8212958,0.2792809,0.9709544,-2.513883,2.0076124,-1.3793958,0.9450944
 ,-1.3213611,-1.2846556,-5.3362145,0.919897,-1.2247848,3.0349044,-1.451
 9488,-3.9069234,0.0861462,0.6964579,-0.0443244,-1.4106235,0.1917434,0.
 0231486,1.7196031,0.157478,3.1542552,0.0683155,-1.589448,-0.8757801,0.
 0298394,0.2597399,-8.8723098,-0.0201279,3.2187523,-5.3887803,0.0861464
 ,0.696457,-0.0443237,1.4106258,-0.1917436,0.0231493,1.7196049,0.157478
 5,3.1542389,-0.068316,1.5894541,-0.875776,-0.029836,-0.2597405,8.87232
 44,-0.0201275,3.2187526,5.3887868,1.9308768,-0.1724082,1.9186162,-1.66
 38754,-0.0708482,-1.4674747,0.0369309,0.6108594,-0.0852117,-0.1971895,
 -1.4298111,-0.0302548,-9.5251345,-0.2742341,0.0714649,2.8945265,0.0164
 317,-5.2200433,-1.9308771,0.1724043,-1.9186158,-1.663875,-0.0708479,1.
 4674746,-0.0369329,-0.6108594,0.0852106,-0.1971904,-1.4298109,0.030254
 3,-9.5251339,-0.2742333,0.0714649,-2.8945269,-0.0164331,-5.2200426,0.0
 000001,-0.0000046,0.,5.2623307,0.0299456,0.,-0.0000066,0.,-0.0000032,0
 .0255322,1.1040914,-0.0000264,2.5085506,0.019926,-0.5334971,0.,-0.0000
 09,24.1591063,0.0000006,0.0000053,0.0000003,-3.3643947,0.1303441,0.000
 0004,0.0000037,0.0000002,-0.0000019,-0.1253255,-3.5281079,0.0000035,-0
 .807233,0.0122814,-1.5033976,0.,0.0000022,-24.8446619,-0.0000004,-0.00
 00053,-0.0000003,3.3643942,-0.1303441,-0.0000005,-0.0000037,-0.0000002
 ,0.000002,0.1253257,3.5281071,-0.0000035,0.8072275,-0.0122814,1.503393
 2,0.,-0.0000022,24.8446713,-0.0861459,-0.6964578,0.0443255,-1.410626,0
 .1917437,-0.0231478,-1.7196067,-0.157478,-3.1542503,0.0683158,-1.58945
 21,0.8757777,0.0298405,0.2597408,-8.8723244,0.0201281,-3.2187534,-5.38
 87901,1.9308614,-0.1724049,1.9186126,1.6638784,0.0708481,-1.467476,0.0
 369307,0.6108583,-0.0852115,0.1971902,1.4298115,-0.0302549,9.52514,0.2
 742331,-0.0714595,2.8945253,0.016433,5.2200451,-4.2610959,-0.6259736,-
 0.3590583,-0.0000028,-0.0000003,-3.6027228,1.4022422,-2.0388244,-0.329
 7996,0.0000011,-0.0000007,0.2099941,-0.000005,-0.000001,-0.0000051,2.5
 080601,0.4650362,-0.0000002,-0.0861469,-0.6964572,0.0443227,1.4106233,
 -0.1917433,-0.0231493,-1.7196014,-0.1574784,-3.1542434,-0.0683157,1.58
 94499,0.8757789,-0.0298353,-0.2597395,8.8723094,0.0201274,-3.2187512,5
 .3887765,-1.9308614,0.1724088,-1.918613,1.6638786,0.0708484,1.4674754,
 -0.0369287,-0.6108583,0.0852127,0.1971891,1.4298113,0.030256,9.5251403
 ,0.2742337,-0.0714601,-2.8945252,-0.0164309,5.2200439,-0.0000002,0.000
 0045,0.,-5.2623347,-0.0299456,0.,0.0000065,0.,0.0000033,-0.0255322,-1.
 104092,0.0000264,-2.5085489,-0.0199259,0.5335011,0.,0.0000089,-24.1591
 157,0.3549143,-2.019329,-1.3511595,0.0000018,-0.0000009,-0.2219681,-0.
 4080724,0.6009875,-2.9834009,-0.0000002,0.0000002,-3.1597874,-0.000006
 3,-0.0000015,0.0000043,-0.4661622,2.9451924,0.0000038,-2.2034101,0.511
 6404,1.240448,0.0000014,0.,1.944243,0.5940871,3.3737787,3.0395156,0.,0
 .,-2.1433353,0.0000002,0.0000007,0.0000009,2.5359225,-2.522021,-0.0000
 008,-3.058003,3.3508444,-0.5159121,-0.000002,0.0000011,2.1568649,1.272
 713,-0.4988989,-2.8448912,0.0000004,0.000001,1.9380543,-0.0000005,0.00
 00009,0.0000033,2.5063064,2.4985517,0.0000012,5.8660155,-4.2591839,6.6
 856036,0.0000012,-0.0000011,0.6825039,-1.1706006,3.0758805,-4.849953,0
 .,0.0000008,-0.4411936,0.000001,-0.0000008,0.0000017,0.9150305,-1.9602
 695,0.0000008,-1.3668868,-2.0088181,-2.559464,-1.3229284,-0.9517841,-1
 .2938946,-0.7246853,-1.4418991,-3.9169201,-0.2787369,-2.8394797,-0.983
 6927,-1.2139058,-0.9222598,-5.3733058,-1.4484543,-3.0568643,-3.9245468
 ,-1.3668885,-2.0088186,-2.5594668,1.3229293,0.9517848,-1.2938951,-0.72
 46851,-1.4419002,-3.9169155,0.2787374,2.8394791,-0.9836939,1.2139067,0
 .9222602,5.3733061,-1.448455,-3.0568652,3.9245484,-4.9877151,-3.087586
 7,-1.1964118,-0.0000005,0.,-0.4385648,-6.7262068,-4.2662348,-5.8921207
 ,-0.0000002,-0.0000002,-0.6792847,-0.000001,0.,-0.0000003,-1.956929,-0
 .9096243,-0.0000007,-3.9506212,1.4451718,-0.7394694,-2.8212958,0.27928
 03,-0.9709541,2.5138837,-2.0076129,1.3793961,0.9450941,-1.3213613,1.28
 46551,-5.3362146,0.919897,-1.2247846,-3.034904,1.4519491,-3.9069214,-3
 .950621,1.4451716,-0.739471,2.8212956,-0.2792804,-0.9709559,2.5138851,
 -2.0076129,1.3793969,-0.9450944,1.3213615,1.2846561,5.3362143,-0.91989
 71,1.224785,-3.0349044,1.4519496,3.9069225,-3.592064,-0.0177687,-0.334
 6785,3.8737352,0.0146535,-11.7906848,-0.011862,-0.8945627,-0.0123503,0
 .013064,1.6325815,-0.067425,2.3035788,0.0138118,0.3583177,-3.0817837,-
 0.0190741,10.1682901,3.5920643,0.0177642,0.3346786,3.8737354,0.014647,
 11.7906851,0.0118554,0.8945627,0.012347,0.0130594,1.6325814,0.0674026,
 2.303579,0.0138096,0.3583179,3.081784,0.0190662,10.1682902,3.5920626,0
 .0177687,0.3346784,-3.8737338,-0.0146537,11.7906812,0.0118619,0.894562
 4,0.0123503,-0.0130636,-1.6325814,0.0674248,-2.3035774,-0.0138117,-0.3
 583176,3.081782,0.0190743,-10.1682906,-3.5920629,-0.0177642,-0.3346786
 ,-3.8737338,-0.014647,-11.7906815,-0.0118552,-0.8945625,-0.0123467,-0.
 0130598,-1.6325813,-0.0674015,-2.3035773,-0.0138098,-0.3583172,-3.0817
 821,-0.019066,-10.1682887\HyperPolar=-0.0000005,-0.0000001,0.0000006,0
 .,-0.0000434,0.0000006,-0.0000075,0.0000002,0.,-0.0001525\PG=C01 [X(C8
 H16O10Rh2)]\NImag=2\\0.18988677,-0.01040942,0.60792996,0.00000002,-0.0
 0000013,0.65423665,-0.07675381,0.00066112,0.,0.51464923,0.00443678,-0.
 19114974,0.00000002,0.01247224,0.45515627,0.,0.,-0.06501054,0.,0.00000
 002,0.57902987,-0.00110702,0.00324583,0.,-0.00020389,-0.00045038,0.,0.
 60937661,0.00021570,-0.00100965,0.,0.00018105,0.00013290,0.,0.01069231
 ,0.18912637,0.,0.,0.01416443,0.,0.,-0.00090797,0.00000003,0.00000004,0
 .65581369,0.00016297,-0.00043065,0.,-0.00005341,0.00001515,0.,-0.19191
 078,-0.00453215,0.,0.45593402,0.00025742,-0.00043878,0.,0.00010492,0.0
 0000379,0.,-0.00070144,-0.07673018,0.,-0.01268217,0.51492197,0.,0.,-0.
 00120766,0.,0.,0.00012125,0.,0.,-0.06520307,-0.00000002,0.,0.57879269,
 0.00052621,-0.00160946,0.,-0.27596867,0.07104697,-0.00000005,-0.000013
 42,-0.00002436,0.,0.00000236,-0.00000900,0.,0.30130474,0.03441746,-0.0
 1363367,0.00000001,0.07375203,-0.06254062,0.00000001,0.00000538,-0.000
 04503,0.,0.00001722,-0.00003104,0.,-0.07917874,0.07151254,0.,0.,-0.000
 34141,-0.00000004,0.00000001,-0.04018252,0.,0.,-0.00011943,0.,0.,0.000
 01414,0.00000005,-0.00000002,0.04184823,-0.00016745,0.00441044,0.00025
 742,-0.09517470,-0.04480219,-0.09594785,-0.00002077,0.00005220,0.00000
 811,0.00000255,0.00001533,-0.00000614,-0.01300307,-0.01157080,-0.02581
 536,0.10153317,-0.01614939,-0.01117816,-0.02898763,-0.04254162,-0.0768
 9942,-0.07327011,-0.00005410,-0.00005096,-0.00046705,0.00002047,0.0000
 0159,0.00004335,0.00497591,0.00322344,0.00789009,0.04504007,0.08537798
 ,0.00111680,0.00278499,-0.00236017,-0.09699675,-0.07763074,-0.22525121
 ,-0.00009348,-0.00004996,-0.00012690,0.00002457,-0.00000973,0.00001180
 ,0.00290286,-0.00048751,-0.00006697,0.10649715,0.08474850,0.24235642,-
 0.00016744,0.00441044,-0.00025742,-0.09517474,-0.04480217,0.09594789,-
 0.00002077,0.00005220,-0.00000811,0.00000255,0.00001533,0.00000614,-0.
 01300307,-0.01157080,0.02581536,0.00623874,0.00573064,-0.01310703,0.10
 153320,-0.01614941,-0.01117813,0.02898762,-0.04254160,-0.07689937,0.07
 327005,-0.00005410,-0.00005096,0.00046705,0.00002047,0.00000159,-0.000
 04335,0.00497591,0.00322344,-0.00789009,0.00573065,0.00397966,-0.01000
 560,0.04504005,0.08537791,-0.00111680,-0.00278498,-0.00236019,0.096996
 78,0.07763067,-0.22525119,0.00009348,0.00004996,-0.00012690,-0.0000245
 7,0.00000973,0.00001180,-0.00290287,0.00048750,-0.00006696,0.01310704,
 0.01000560,-0.01672273,-0.10649719,-0.08474843,0.24235641,-0.00009504,
 -0.00008418,0.,0.00002882,0.00003310,0.,-0.01367368,-0.03441491,0.,-0.
 06253814,-0.07366840,-0.00000001,0.00002794,0.00000487,0.,-0.00003225,
 0.00004335,0.00003184,-0.00003225,0.00004335,-0.00003184,0.07151463,0.
 00003836,-0.00001825,0.,-0.00001464,0.00001746,0.,0.00152541,0.0005404
 8,0.,-0.07094161,-0.27607595,-0.00000004,-0.00000241,0.00000315,0.,0.0
 0000030,0.00000409,0.00000174,0.00000030,0.00000409,-0.00000174,0.0791
 0628,0.30138265,0.,0.,0.00017551,0.,0.,0.00003607,0.,0.,-0.00033559,-0
 .00000001,-0.00000004,-0.04023268,0.,0.,-0.00000510,0.00000753,-0.0000
 1427,-0.00000778,-0.00000753,0.00001427,-0.00000778,0.00000001,0.00000
 005,0.04192360,-0.00002272,0.00000339,-0.00036278,-0.00002099,0.000011
 44,0.00003591,-0.01118651,0.01612855,-0.02902843,-0.07708526,0.0426424
 5,-0.07340497,0.00000054,0.00000892,0.00000294,-0.00000044,0.00001548,
 0.00000569,-0.00000119,-0.00000857,0.00000029,0.00322965,-0.00496184,0
 .00788467,0.08554683,-0.00001423,0.00004219,0.00014760,0.00000682,-0.0
 0001303,0.00001350,-0.00443059,-0.00014817,-0.00027860,0.04492675,-0.0
 9522716,0.09604318,0.00000390,-0.00000270,-0.00000198,-0.00000189,-0.0
 0000773,-0.00000246,-0.00000685,0.00000873,-0.00000464,0.01158603,-0.0
 1297469,0.02581094,-0.04518077,0.10154776,0.00001458,-0.00003873,-0.00
 009744,-0.00000850,0.00000517,0.00000088,0.00281291,-0.00111772,-0.002
 39767,-0.07773640,0.09697061,-0.22501659,-0.00000652,0.00000206,0.0000
 0095,0.00000539,-0.00000278,0.00000017,0.00000587,-0.00000946,0.000002
 50,-0.00048388,-0.00289516,-0.00006891,0.08483148,-0.10650054,0.242185
 46,-0.00002272,0.00000339,0.00036278,-0.00002099,0.00001144,-0.0000359
 1,-0.01118650,0.01612854,0.02902843,-0.07708526,0.04264242,0.07340499,
 0.00000054,0.00000892,-0.00000294,-0.00000119,-0.00000857,-0.00000029,
 -0.00000044,0.00001548,-0.00000569,0.00322965,-0.00496184,-0.00788467,
 0.00399896,-0.00571530,-0.01002856,0.08554683,-0.00001423,0.00004219,-
 0.00014760,0.00000682,-0.00001303,-0.00001350,-0.00443059,-0.00014817,
 0.00027860,0.04492673,-0.09522710,-0.09604314,0.00000390,-0.00000270,0
 .00000198,-0.00000685,0.00000873,0.00000464,-0.00000189,-0.00000773,0.
 00000246,0.01158603,-0.01297468,-0.02581094,-0.00571531,0.00622490,0.0
 1312238,-0.04518075,0.10154768,-0.00001458,0.00003873,-0.00009744,0.00
 000850,-0.00000517,0.00000088,-0.00281291,0.00111772,-0.00239767,0.077
 73642,-0.09697057,-0.22501666,0.00000652,-0.00000206,0.00000095,-0.000
 00587,0.00000946,0.00000250,-0.00000539,0.00000278,0.00000017,0.000483
 88,0.00289516,-0.00006892,0.01002856,-0.01312238,-0.01681601,-0.084831
 51,0.10650050,0.24218554,-0.05683630,0.00081671,0.00113137,0.01063836,
 0.00105970,0.00234819,0.00153788,-0.00031598,0.00142854,-0.00006780,-0
 .00056212,0.00004095,0.00011460,-0.00209958,-0.00076385,0.00053284,0.0
 0070482,-0.00066926,-0.00006509,0.00150541,-0.00010655,0.00003495,0.00
 002820,0.00005260,0.00009801,0.00003896,-0.00002518,0.00005757,-0.0000
 3024,-0.00002248,0.04542438,0.00208995,-0.17053484,-0.11720845,-0.0009
 3420,-0.02714791,-0.04220537,-0.00115818,0.00028732,-0.00248945,0.0002
 0416,-0.00002506,0.00030241,-0.00020105,-0.00054466,-0.00112906,0.0011
 5306,-0.00765936,-0.00086945,-0.00000230,0.00292863,-0.00145473,0.0000
 6143,0.00001214,-0.00002903,0.00008088,-0.00006718,-0.00000257,-0.0000
 8700,-0.00002201,0.00002205,-0.00223226,0.27296399,0.00233630,-0.12320
 785,-0.28507614,0.00121744,-0.01189360,-0.01089534,-0.00028173,0.00031
 445,-0.00644070,0.00008601,-0.00005173,0.00059995,-0.00080982,0.000384
 78,-0.00055659,0.00064620,-0.00061079,0.00127177,-0.00118184,-0.000230
 22,0.00046376,-0.00003287,-0.00000752,-0.00009318,0.00019615,-0.000083
 30,0.00006028,-0.00017157,0.00006293,0.00003793,-0.00190934,0.14160600
 ,0.40030837,-0.05683618,0.00081672,-0.00113139,0.01063835,0.00105969,-
 0.00234819,0.00153787,-0.00031598,-0.00142854,-0.00006780,-0.00056212,
 -0.00004095,0.00011460,-0.00209957,0.00076385,-0.00006509,0.00150541,0
 .00010655,0.00053284,0.00070482,0.00066926,0.00003495,0.00002820,-0.00
 005260,0.00005757,-0.00003024,0.00002248,0.00009801,0.00003896,0.00002
 518,0.02475737,0.00015164,-0.00007131,0.04542433,0.00208995,-0.1705348
 2,0.11720851,-0.00093420,-0.02714796,0.04220541,-0.00115818,0.00028732
 ,0.00248945,0.00020416,-0.00002506,-0.00030241,-0.00020105,-0.00054466
 ,0.00112906,-0.00000230,0.00292863,0.00145473,0.00115306,-0.00765937,0
 .00086944,0.00006143,0.00001214,0.00002903,-0.00008700,-0.00002201,-0.
 00002205,0.00008088,-0.00006718,0.00000257,0.00015164,0.02528303,-0.00
 359962,-0.00223226,0.27296421,-0.00233633,0.12320788,-0.28507624,-0.00
 121744,0.01189363,-0.01089537,0.00028173,-0.00031445,-0.00644070,-0.00
 008601,0.00005173,0.00059994,0.00080983,-0.00038478,-0.00055659,0.0011
 8184,0.00023023,0.00046376,-0.00064620,0.00061079,0.00127177,0.0000328
 7,0.00000752,-0.00009318,0.00017157,-0.00006293,0.00003793,-0.00019615
 ,0.00008330,0.00006028,0.00007131,0.00359957,-0.08946944,0.00190937,-0
 .14160601,0.40030850,0.00024577,-0.00105897,-0.00249485,-0.00004465,0.
 00014631,0.00022387,-0.17045247,-0.00219288,-0.11803677,-0.02697891,0.
 00098759,-0.04214636,0.00002899,-0.00003063,0.00001962,-0.00003942,0.0
 0014148,0.00009789,-0.00004478,-0.00006414,-0.00004156,-0.00050891,0.0
 0022761,-0.00112395,-0.00763354,-0.00119890,-0.00086914,0.00295995,-0.
 00001051,-0.00143989,-0.00127612,0.00186831,0.00146935,0.00032452,0.00
 022958,0.00111986,0.27311228,-0.00022591,0.00148403,0.00136439,-0.0005
 2269,-0.00005493,-0.00001110,-0.00087570,-0.05650138,-0.00118180,-0.00
 107654,0.01058796,-0.00237925,0.00001290,0.00016775,0.00001408,-0.0000
 4796,-0.00003365,0.00002088,-0.00003990,0.00006156,-0.00003698,0.00208
 769,0.00010503,0.00077025,-0.00069366,0.00052381,0.00067662,-0.0015051
 5,-0.00007529,0.00011067,0.00599240,-0.00126929,-0.00033189,0.00062470
 ,0.00029927,-0.00037956,0.00229071,0.04608866,0.00028345,-0.00027258,-
 0.00643432,-0.00002942,0.00006348,0.00045710,-0.12308494,-0.00238665,-
 0.28510846,-0.01180393,-0.00124164,-0.01092036,-0.00000570,0.00001696,
 0.00004925,-0.00001318,0.00023117,0.00007663,-0.00000333,-0.00024457,0
 .00004471,0.00037671,0.00082994,-0.00057324,-0.00062291,-0.00066122,0.
 00131000,-0.00028506,0.00121204,0.00048697,-0.00043855,0.00146430,0.00
 325271,0.00040915,-0.00109731,0.00299312,0.14188481,0.00195655,0.39957
 976,0.00028339,0.00113802,0.00245329,-0.00003208,-0.00020103,-0.000308
 76,0.00228356,0.00007353,0.01908251,-0.00063478,0.00015736,-0.00256488
 ,0.00001449,-0.00005911,0.00002945,-0.00006421,-0.00008566,0.00000279,
 -0.00002007,0.00008638,-0.00001975,-0.00008193,-0.00005933,-0.00007988
 ,-0.00079317,-0.00008385,-0.00024079,0.00061764,-0.00002522,-0.0000933
 4,-0.00126865,-0.00186356,-0.00146119,0.00030342,-0.00022987,-0.001081
 28,-0.01766303,-0.00006872,-0.00400954,0.27311227,0.00028190,0.0015336
 6,0.00141010,0.00056684,-0.00006985,0.00005189,0.00010647,0.00020831,0
 .00008138,-0.00006314,-0.00119587,0.00018063,-0.00002852,0.00003293,0.
 00005166,-0.00003971,0.00010115,-0.00002587,0.00003019,0.00005644,-0.0
 0002253,-0.00026345,-0.00001176,-0.00006592,0.00016455,-0.00003727,0.0
 0000022,0.00007244,0.00000570,-0.00005930,-0.00598578,-0.00126558,-0.0
 0038834,-0.00062360,0.00031838,-0.00040832,-0.00006872,0.00868848,-0.0
 0008423,0.00229067,0.04608866,-0.00030231,-0.00025431,-0.00646564,0.00
 004487,0.00008009,0.00061002,0.00292587,0.00002800,-0.01065031,0.00003
 205,-0.00004806,0.00165418,0.00000768,-0.00003258,-0.00009393,0.000082
 18,0.00019861,0.00005922,-0.00006437,-0.00017814,0.00003927,0.00001893
 ,0.00001063,0.00005311,0.00046476,0.00000493,0.00008668,-0.00035942,0.
 00000448,0.00009856,0.00038110,0.00147061,0.00325194,-0.00037786,-0.00
 113507,0.00299368,0.00400954,0.00008424,0.01279759,-0.14188482,-0.0019
 5644,0.39957976,0.00004136,0.00000816,-0.00000099,-0.00005397,-0.00001
 162,0.00002538,0.00002919,-0.00000493,0.00105597,-0.00005818,-0.000014
 41,-0.00001043,0.00002148,-0.00001281,-0.00002670,0.00000039,-0.000004
 03,0.00001352,-0.00002977,0.00001950,-0.00001671,0.00002161,0.00000205
 ,0.00002432,-0.00000499,0.00003067,-0.00003859,0.00006146,-0.00001724,
 0.00001831,0.00052065,0.00000299,-0.00000728,0.00007089,-0.00000701,0.
 00000883,-0.00003344,-0.00000709,-0.00353363,-0.00003344,-0.00000709,0
 .00353363,0.72728767,0.00002037,0.00052242,0.00232856,-0.00003169,-0.0
 0009065,-0.00002015,-0.00002173,0.00003616,-0.00001006,0.00002179,-0.0
 0003747,-0.00004280,-0.00001532,0.00004676,0.00006295,-0.00003834,-0.0
 0001270,-0.00008248,0.00007476,0.00016629,0.00002368,0.00004256,0.0000
 3681,0.00004389,-0.00000742,-0.00000287,-0.00002791,-0.00004383,-0.000
 05422,0.00003093,0.00001099,-0.00002038,-0.00321567,-0.00001649,0.0009
 0334,-0.00159781,0.00000374,0.00061381,0.00000582,0.00000374,0.0006138
 1,-0.00000582,0.00424844,-0.00474763,-0.00004150,0.00088352,-0.0019748
 7,0.00006388,-0.00018926,0.00023253,0.00073943,0.00003513,-0.00219492,
 -0.00016405,-0.00004350,0.00030134,0.00002500,-0.00003650,-0.00000964,
 -0.00000702,0.00005982,0.00000140,-0.00004618,-0.00012330,0.00002077,-
 0.00003009,-0.00001865,-0.00000098,0.00007495,0.00000284,-0.00000422,-
 0.00010510,0.00002640,0.00002864,0.00000098,-0.00078706,0.00081784,-0.
 00000547,-0.00060792,0.00139717,-0.00018823,-0.00000147,0.00058890,0.0
 0018823,0.00000147,0.00058890,0.,-0.00000047,0.38819681,0.00002419,0.0
 0043405,0.00040624,0.00505781,-0.00022691,0.00093624,-0.02248450,0.000
 18713,-0.03437655,0.00394209,-0.00021379,0.00474593,-0.00009044,-0.000
 97654,-0.00031244,0.00024220,0.00067866,-0.00016340,0.00008274,0.00021
 171,-0.00019978,-0.00036209,-0.00008963,0.00008122,0.00122047,0.000090
 00,0.00042023,-0.00083687,-0.00003569,0.00028320,-0.03104379,-0.000002
 53,-0.00042625,-0.00368719,0.00000542,-0.00015286,-0.07567931,-0.00000
 649,0.00853518,-0.07567930,-0.00000651,-0.00853518,-0.02219321,-0.0000
 8953,0.,0.28304432,-0.00014440,-0.02254949,-0.03595757,0.00017328,0.00
 397999,0.00497345,-0.00042972,0.00018920,-0.00041379,0.00022362,0.0050
 2737,-0.00092437,0.00007193,-0.00032902,0.00008089,-0.00006378,0.00128
 815,0.00044848,0.00003715,-0.00088458,0.00029912,0.00095361,-0.0000898
 6,0.00030369,-0.00067134,0.00024396,0.00016365,-0.00019574,0.00009460,
 0.00019524,0.00000265,-0.07415275,0.00891111,0.00004428,-0.00905723,0.
 00973512,-0.00000300,-0.03137269,0.00044111,-0.00000301,-0.03137269,-0
 .00044111,-0.00007040,-0.01005538,-0.00000002,0.00007428,0.26855399,0.
 00025215,-0.02446160,-0.00473877,-0.00020499,0.00081105,-0.00153020,-0
 .02449537,-0.00026355,-0.00439998,0.00079417,0.00021119,-0.00161209,-0
 .00000890,-0.00007482,-0.00003282,0.00008149,-0.00039405,0.00020384,0.
 00002481,0.00004474,0.00012207,-0.00007204,0.00000298,-0.00002633,-0.0
 0040603,-0.00007402,0.00018947,0.00005763,-0.00003056,0.00011697,-0.00
 012252,0.02172134,-0.03073231,0.00004704,-0.00032581,0.00196829,0.0208
 0113,0.00013258,-0.03037661,-0.02080113,-0.00013257,-0.03037661,0.,0.0
 0000001,-0.04459945,0.,-0.00000004,0.32405113,0.00002422,0.00043405,-0
 .00040624,0.00505782,-0.00022692,-0.00093625,-0.02248451,0.00018714,0.
 03437656,0.00394210,-0.00021379,-0.00474593,-0.00009044,-0.00097654,0.
 00031244,0.00008274,0.00021171,0.00019978,0.00024220,0.00067866,0.0001
 6340,-0.00036209,-0.00008963,-0.00008122,-0.00083687,-0.00003569,-0.00
 028320,0.00122047,0.00009000,-0.00042023,-0.00368722,0.00000541,0.0001
 5286,-0.03104386,-0.00000253,0.00042625,-0.00812164,-0.00004726,-0.008
 91261,-0.00812164,-0.00004726,0.00891261,0.00507006,0.00002255,0.,-0.0
 0770920,-0.00004282,0.,0.28304455,-0.00014440,-0.02254952,0.03595761,0
 .00017328,0.00398001,-0.00497345,-0.00042971,0.00018921,0.00041379,0.0
 0022362,0.00502737,0.00092437,0.00007193,-0.00032902,-0.00008089,0.000
 03716,-0.00088458,-0.00029912,-0.00006378,0.00128815,-0.00044848,0.000
 95361,-0.00008986,-0.00030369,-0.00019574,0.00009460,-0.00019524,-0.00
 067134,0.00024396,-0.00016365,0.00004428,-0.00905721,-0.00973514,0.000
 00264,-0.07415290,-0.00891109,-0.00000074,-0.00360164,-0.00015206,-0.0
 0000074,-0.00360164,0.00015206,0.00002318,0.00144668,0.,-0.00004282,-0
 .00051916,0.,0.00007428,0.26855416,-0.00025215,0.02446170,-0.00473882,
 0.00020498,-0.00081106,-0.00153021,0.02449541,0.00026355,-0.00439998,-
 0.00079418,-0.00021119,-0.00161209,0.00000890,0.00007482,-0.00003282,-
 0.00002481,-0.00004474,0.00012207,-0.00008149,0.00039405,0.00020384,0.
 00007204,-0.00000298,-0.00002633,-0.00005763,0.00003056,0.00011697,0.0
 0040603,0.00007402,0.00018947,-0.00004704,0.00032581,0.00196829,0.0001
 2252,-0.02172140,-0.03073232,0.00029595,0.00004378,0.00196540,-0.00029
 595,-0.00004378,0.00196540,0.,0.,-0.00057433,0.,0.,-0.14020783,0.,-0.0
 0000004,0.32405132,0.00020890,-0.00010863,-0.00007818,-0.00120206,0.00
 006310,-0.00018240,0.00148918,0.00025394,0.00137765,-0.00005228,0.0005
 2392,-0.00001792,-0.00001196,0.00026547,0.00006622,-0.00003740,-0.0001
 6479,0.00000056,0.00000548,-0.00007374,0.00006005,0.00016797,-0.000011
 38,0.00001358,-0.00003574,0.00004600,0.00001990,0.00006367,0.00003945,
 -0.00003708,0.00864928,0.00006186,0.00008498,0.00109494,-0.00001623,0.
 00001520,-0.00126866,-0.00598579,-0.00038110,-0.00127613,0.00599241,0.
 00043855,0.00052065,0.00001099,-0.00000098,-0.03104383,0.00000265,0.00
 012252,-0.00368720,0.00004428,0.00004704,0.04542431,-0.00007918,0.0022
 7895,0.01968634,-0.00016202,-0.00065115,-0.00267193,0.00107362,0.00025
 198,0.00252830,-0.00014681,-0.00004630,-0.00022171,0.00006573,-0.00008
 899,-0.00008230,0.00008264,-0.00082789,-0.00024894,0.00002766,0.000644
 66,-0.00009998,0.00003482,0.00002949,-0.00001857,-0.00013935,-0.000039
 25,-0.00009972,0.00006176,-0.00004669,0.00004277,0.00006186,-0.0180362
 5,-0.00410799,-0.00001623,0.00609413,-0.00708292,-0.00186357,-0.001265
 58,-0.00147060,0.00186831,-0.00126929,-0.00146430,0.00000299,-0.000020
 37,0.00078706,-0.00000253,-0.07415286,-0.02172139,0.00000541,-0.009057
 23,-0.00032581,-0.00223225,0.27296416,-0.00002280,0.00291428,-0.010932
 53,0.00004796,0.00003267,0.00170855,-0.00029856,-0.00030214,-0.0064098
 0,0.00006954,0.00004283,0.00044796,-0.00001140,0.00002191,0.00005644,-
 0.00000655,0.00048385,0.00008817,-0.00000316,-0.00037385,0.00010046,0.
 00002046,0.00000688,0.00004905,0.00022588,0.00001172,0.00007710,-0.000
 23790,0.00000334,0.00004393,-0.00008498,0.00410799,0.01302555,0.000015
 20,-0.00708292,0.00345431,0.00146119,0.00038834,0.00325194,-0.00146935
 ,0.00033189,0.00325271,0.00000728,0.00321566,0.00081784,0.00042625,-0.
 00891109,-0.03073229,-0.00015286,0.00973513,0.00196828,0.00190933,-0.1
 4160602,0.40030849,0.00024576,-0.00105897,0.00249485,-0.00004465,0.000
 14631,-0.00022387,-0.17045245,-0.00219286,0.11803672,-0.02697893,0.000
 98760,0.04214637,0.00002899,-0.00003063,-0.00001962,-0.00004478,-0.000
 06414,0.00004156,-0.00003942,0.00014148,-0.00009789,-0.00050891,0.0002
 2761,0.00112394,0.00295995,-0.00001051,0.00143989,-0.00763354,-0.00119
 890,0.00086914,0.00032453,0.00022958,-0.00111986,-0.00127614,0.0018683
 1,-0.00146935,0.02476253,-0.00013353,-0.00376292,0.00577668,0.00001810
 ,-0.00684539,0.00036838,0.00000284,-0.00065790,-0.00812165,-0.00000074
 ,-0.00029595,-0.07567938,-0.00000300,-0.02080115,0.00030342,-0.0002298
 7,-0.00108127,0.27311236,-0.00022591,0.00148403,-0.00136439,-0.0005226
 9,-0.00005493,0.00001110,-0.00087568,-0.05650136,0.00118177,-0.0010765
 4,0.01058796,0.00237924,0.00001290,0.00016775,-0.00001408,-0.00003990,
 0.00006156,0.00003698,-0.00004796,-0.00003366,-0.00002088,0.00208769,0
 .00010503,-0.00077025,-0.00150515,-0.00007529,-0.00011067,-0.00069366,
 0.00052381,-0.00067662,0.00062470,0.00029927,0.00037956,0.00599241,-0.
 00126929,0.00033189,-0.00013353,0.02432129,0.00005924,0.00001810,0.001
 05806,-0.00001899,0.00000674,-0.00000797,0.00000701,-0.00004726,-0.003
 60163,-0.00004378,-0.00000651,-0.03137272,-0.00013257,-0.00062360,0.00
 031838,-0.00040832,0.00229068,0.04608867,-0.00028345,0.00027257,-0.006
 43432,0.00002942,-0.00006348,0.00045710,0.12308489,0.00238662,-0.28510
 837,0.01180394,0.00124164,-0.01092036,0.00000570,-0.00001696,0.0000492
 5,0.00000333,0.00024457,0.00004471,0.00001318,-0.00023117,0.00007663,-
 0.00037671,-0.00082994,-0.00057324,0.00028506,-0.00121204,0.00048697,0
 .00062291,0.00066122,0.00131000,-0.00040916,0.00109732,0.00299312,0.00
 043855,-0.00146430,0.00325271,0.00376291,-0.00005927,-0.09040493,-0.00
 684539,-0.00001898,0.00341134,-0.00055974,-0.00000096,0.00145847,0.008
 91260,0.00015206,0.00196540,-0.00853519,-0.00044111,-0.03037664,-0.000
 37786,-0.00113507,0.00299368,-0.14188476,-0.00195649,0.39957968,-0.000
 99539,-0.00324369,0.,-0.00043698,0.00042898,0.,-0.00264189,-0.00004912
 ,0.,0.00017937,-0.00000201,0.,-0.00002149,0.00008451,0.,0.00004135,-0.
 00000454,0.00003913,0.00004135,-0.00000454,-0.00003913,-0.00001265,0.0
 0002592,0.,-0.00002481,-0.00000949,0.00002936,-0.00002481,-0.00000949,
 -0.00002936,0.00148918,0.00107362,0.00029856,0.00148918,0.00107362,-0.
 00029856,0.00228356,0.00010647,-0.00292587,-0.17045248,-0.00087567,0.1
 2308494,0.00002919,-0.00002173,-0.00073943,-0.02248450,-0.00042970,0.0
 2449537,-0.02248452,-0.00042972,-0.02449541,0.00153787,-0.00115818,0.0
 0028173,0.00228356,0.00010647,0.00292587,0.60937661,-0.00021592,-0.001
 12613,0.,-0.00025433,0.00016481,0.,-0.00004912,0.00054554,0.,0.0000082
 5,0.00004392,0.,-0.00003699,-0.00009670,0.,0.00001301,-0.00002344,0.00
 001604,0.00001301,-0.00002344,-0.00001604,-0.00000117,0.00000913,0.,0.
 00000988,-0.00000764,0.00000671,0.00000988,-0.00000764,-0.00000671,0.0
 0025394,0.00025198,0.00030214,0.00025394,0.00025198,-0.00030215,0.0000
 7353,0.00020831,-0.00002800,-0.00219285,-0.05650138,0.00238659,-0.0000
 0494,0.00003616,-0.00003513,0.00018715,0.00018920,0.00026355,0.0001871
 3,0.00018921,-0.00026355,-0.00031598,0.00028732,-0.00031445,0.00007354
 ,0.00020831,0.00002800,0.01069231,0.18912637,0.,0.,0.01416068,0.,0.,-0
 .00122477,0.,0.,0.02830407,0.,0.,-0.00351897,0.,0.,0.00017437,-0.00014
 655,-0.00036899,-0.00009663,0.00014655,0.00036899,-0.00009663,0.,0.,-0
 .00010281,-0.00097391,0.00003472,-0.00029830,0.00097391,-0.00003472,-0
 .00029830,-0.00137766,-0.00252830,-0.00640980,0.00137765,0.00252829,-0
 .00640980,-0.01908251,-0.00008138,-0.01065031,0.11803677,0.00118174,-0
 .28510846,-0.00105597,0.00001006,-0.00219492,0.03437655,0.00041379,-0.
 00439998,-0.03437656,-0.00041379,-0.00439998,-0.00142854,0.00248945,-0
 .00644070,0.01908252,0.00008138,-0.01065030,-0.00000004,0.00000010,0.6
 5581369,0.00020890,-0.00010863,0.00007818,-0.00120207,0.00006310,0.000
 18240,0.00148918,0.00025394,-0.00137766,-0.00005228,0.00052392,0.00001
 792,-0.00001196,0.00026547,-0.00006622,0.00000548,-0.00007374,-0.00006
 005,-0.00003740,-0.00016479,-0.00000056,0.00016797,-0.00001138,-0.0000
 1358,0.00006367,0.00003945,0.00003708,-0.00003574,0.00004600,-0.000019
 90,0.00109495,-0.00001623,-0.00001520,0.00864929,0.00006186,-0.0000849
 8,0.00030343,-0.00062360,0.00037786,0.00032452,0.00062470,-0.00040916,
 0.00007089,-0.00001649,0.00000547,-0.00368721,0.00004428,-0.00004704,-
 0.03104382,0.00000264,-0.00012252,0.02475737,0.00015164,0.00007132,-0.
 00126865,-0.00598579,0.00038110,0.00153788,-0.00031598,0.00142854,0.04
 542440,-0.00007919,0.00227894,-0.01968635,-0.00016202,-0.00065115,0.00
 267194,0.00107362,0.00025198,-0.00252830,-0.00014681,-0.00004630,0.000
 22172,0.00006573,-0.00008899,0.00008230,0.00002766,0.00064466,0.000099
 98,0.00008264,-0.00082789,0.00024894,0.00003482,0.00002949,0.00001857,
 0.00006176,-0.00004669,-0.00004277,-0.00013935,-0.00003925,0.00009972,
 -0.00001623,0.00609413,0.00708293,0.00006186,-0.01803625,0.00410799,-0
 .00022986,0.00031838,0.00113507,0.00022958,0.00029927,0.00109732,-0.00
 000701,0.00090334,0.00060793,0.00000541,-0.00905722,0.00032581,-0.0000
 0253,-0.07415278,0.02172136,0.00015163,0.02528303,0.00359956,-0.001863
 56,-0.00126558,0.00147060,-0.00115818,0.00028732,-0.00248945,-0.002232
 26,0.27296404,0.00002280,-0.00291429,-0.01093252,-0.00004796,-0.000032
 66,0.00170855,0.00029855,0.00030214,-0.00640980,-0.00006954,-0.0000428
 3,0.00044796,0.00001140,-0.00002191,0.00005644,0.00000316,0.00037386,0
 .00010046,0.00000655,-0.00048385,0.00008817,-0.00002046,-0.00000688,0.
 00004905,0.00023790,-0.00000334,0.00004393,-0.00022588,-0.00001172,0.0
 0007710,-0.00001520,0.00708292,0.00345431,0.00008498,-0.00410799,0.013
 02555,0.00108128,0.00040832,0.00299368,-0.00111986,0.00037956,0.002993
 12,-0.00000883,0.00159781,0.00139716,0.00015286,-0.00973514,0.00196829
 ,-0.00042625,0.00891111,-0.03073234,-0.00007130,-0.00359962,-0.0894694
 4,-0.00146118,-0.00038834,0.00325194,-0.00028173,0.00031445,-0.0064407
 0,-0.00190938,0.14160599,0.40030839,0.00028339,0.00113802,-0.00245328,
 -0.00003208,-0.00020103,0.00030876,0.00228356,0.00007353,-0.01908252,-
 0.00063479,0.00015736,0.00256488,0.00001449,-0.00005911,-0.00002945,-0
 .00002007,0.00008638,0.00001975,-0.00006421,-0.00008566,-0.00000279,-0
 .00008193,-0.00005933,0.00007988,0.00061764,-0.00002522,0.00009334,-0.
 00079318,-0.00008385,0.00024079,0.00030343,-0.00022986,0.00108128,-0.0
 0126866,-0.00186357,0.00146118,0.00577668,0.00001810,0.00684539,0.0247
 6253,-0.00013353,0.00376292,0.00036838,0.00000284,0.00065790,-0.008121
 66,-0.00000074,0.00029595,-0.07567938,-0.00000299,0.02080115,0.0003245
 2,0.00022958,0.00111986,-0.01766303,-0.00006871,0.00400954,-0.17045245
 ,-0.00219289,-0.11803672,-0.00127613,0.00186831,0.00146935,0.27311237,
 0.00028190,0.00153366,-0.00141010,0.00056684,-0.00006985,-0.00005189,0
 .00010647,0.00020831,-0.00008138,-0.00006314,-0.00119587,-0.00018063,-
 0.00002852,0.00003293,-0.00005166,0.00003019,0.00005644,0.00002253,-0.
 00003971,0.00010115,0.00002587,-0.00026345,-0.00001176,0.00006592,0.00
 007244,0.00000570,0.00005930,0.00016455,-0.00003727,-0.00000022,-0.000
 62360,0.00031838,0.00040832,-0.00598579,-0.00126558,0.00038834,0.00001
 810,0.00105806,0.00001899,-0.00013353,0.02432129,-0.00005928,0.0000067
 4,-0.00000797,-0.00000701,-0.00004726,-0.00360163,0.00004378,-0.000006
 49,-0.03137272,0.00013258,0.00062470,0.00029927,-0.00037956,-0.0000687
 2,0.00868849,0.00008424,-0.00087571,-0.05650136,-0.00118183,0.00599241
 ,-0.00126929,-0.00033189,0.00229072,0.04608867,0.00030230,0.00025431,-
 0.00646564,-0.00004487,-0.00008009,0.00061002,-0.00292587,-0.00002800,
 -0.01065030,-0.00003205,0.00004806,0.00165418,-0.00000768,0.00003258,-
 0.00009393,0.00006437,0.00017814,0.00003927,-0.00008218,-0.00019861,0.
 00005922,-0.00001893,-0.00001063,0.00005311,0.00035942,-0.00000447,0.0
 0009856,-0.00046476,-0.00000493,0.00008669,0.00037786,0.00113507,0.002
 99368,-0.00038110,-0.00147060,0.00325194,0.00684539,0.00001899,0.00341
 134,-0.00376291,0.00005923,-0.09040493,0.00055974,0.00000096,0.0014584
 7,-0.00891260,-0.00015206,0.00196540,0.00853519,0.00044111,-0.03037664
 ,0.00040916,-0.00109731,0.00299312,-0.00400954,-0.00008423,0.01279760,
 -0.12308488,-0.00238668,-0.28510836,-0.00043855,0.00146430,0.00325271,
 0.14188475,0.00195659,0.39957968,0.00004136,0.00000816,0.00000099,-0.0
 0005397,-0.00001162,-0.00002538,0.00002919,-0.00000494,-0.00105597,-0.
 00005818,-0.00001441,0.00001043,0.00002148,-0.00001282,0.00002670,-0.0
 0002978,0.00001950,0.00001671,0.00000039,-0.00000403,-0.00001352,0.000
 02161,0.00000205,-0.00002432,0.00006146,-0.00001724,-0.00001831,-0.000
 00499,0.00003067,0.00003859,0.00007089,-0.00000701,-0.00000883,0.00052
 065,0.00000299,0.00000728,0.00036838,0.00000674,0.00055974,0.00036838,
 0.00000674,-0.00055974,-0.00067265,-0.00000380,0.,0.00507007,0.0000231
 8,0.,-0.02219324,-0.00007040,0.,0.00007089,-0.00000701,0.00000883,-0.0
 0003343,-0.00000709,0.00353363,0.00002919,-0.00000493,0.00105597,0.000
 52065,0.00000299,-0.00000728,-0.00003343,-0.00000709,-0.00353363,0.727
 28766,0.00002037,0.00052242,-0.00232854,-0.00003169,-0.00009065,0.0000
 2015,-0.00002173,0.00003616,0.00001006,0.00002179,-0.00003747,0.000042
 80,-0.00001532,0.00004676,-0.00006295,0.00007476,0.00016629,-0.0000236
 8,-0.00003834,-0.00001270,0.00008248,0.00004256,0.00003681,-0.00004389
 ,-0.00004383,-0.00005422,-0.00003093,-0.00000742,-0.00000287,0.0000279
 1,-0.00001649,0.00090334,0.00159781,0.00001099,-0.00002036,0.00321566,
 0.00000284,-0.00000797,0.00000096,0.00000284,-0.00000797,-0.00000096,-
 0.00000380,0.00000680,0.,0.00002255,0.00144668,0.,-0.00008953,-0.01005
 542,0.00000001,-0.00001649,0.00090334,-0.00159781,0.00000374,0.0006138
 1,-0.00000582,-0.00002173,0.00003616,-0.00001006,0.00001099,-0.0000203
 7,-0.00321567,0.00000374,0.00061381,0.00000582,0.00424844,-0.00474761,
 0.00004149,-0.00088352,-0.00197487,-0.00006388,0.00018926,0.00023253,-
 0.00073943,-0.00003513,-0.00219492,0.00016405,0.00004350,0.00030134,-0
 .00002500,0.00003650,-0.00000964,0.00004618,0.00012330,0.00002077,0.00
 000702,-0.00005982,0.00000140,0.00003009,0.00001865,-0.00000098,0.0001
 0510,-0.00002640,0.00002864,-0.00007495,-0.00000284,-0.00000422,0.0000
 0547,0.00060793,0.00139717,-0.00000098,0.00078706,0.00081784,0.0006579
 0,-0.00000701,0.00145847,-0.00065790,0.00000701,0.00145847,0.,0.,-0.00
 201673,0.,0.,-0.00057434,0.,-0.00000002,-0.04459951,-0.00000547,-0.000
 60793,0.00139717,0.00018823,0.00000147,0.00058890,0.00073943,0.0000351
 3,-0.00219492,0.00000098,-0.00078706,0.00081784,-0.00018823,-0.0000014
 7,0.00058890,0.,-0.00000047,0.38819683,0.00054937,0.00004952,0.,0.0000
 4519,-0.00000805,0.,-0.00099539,-0.00021592,0.,0.00013325,-0.00018450,
 0.,0.00000854,0.00000042,0.,-0.00000746,-0.00000956,-0.00000708,-0.000
 00746,-0.00000956,0.00000708,-0.00004351,0.00002236,0.,-0.00005029,-0.
 00004919,-0.00004774,-0.00005029,-0.00004919,0.00004774,0.00020890,-0.
 00007918,0.00002280,0.00020890,-0.00007919,-0.00002280,0.00028339,0.00
 028190,0.00030231,0.00024577,-0.00022591,-0.00028345,0.00004136,0.0000
 2037,0.00004150,0.00002422,-0.00014440,-0.00025215,0.00002420,-0.00014
 440,0.00025215,-0.05683619,0.00208994,-0.00233630,0.00028339,0.0002819
 0,-0.00030231,-0.00110702,0.00021570,0.,-0.05683630,0.00208996,0.00233
 633,0.00024576,-0.00022591,0.00028345,0.00004136,0.00002037,-0.0000415
 0,0.18988677,0.00004952,-0.00266674,0.,0.00000703,0.00018627,0.,-0.003
 24369,-0.00112613,0.,0.00045160,-0.00019868,0.,-0.00002711,-0.00001228
 ,0.,0.00000892,-0.00002197,0.00002768,0.00000892,-0.00002198,-0.000027
 68,-0.00000253,-0.00001481,0.,0.00005345,-0.00001921,0.00009413,0.0000
 5345,-0.00001921,-0.00009413,-0.00010863,0.00227894,-0.00291429,-0.000
 10863,0.00227894,0.00291429,0.00113802,0.00153366,0.00025431,-0.001058
 97,0.00148403,0.00027258,0.00000816,0.00052242,-0.00088352,0.00043405,
 -0.02254951,0.02446167,0.00043405,-0.02254950,-0.02446162,0.00081671,-
 0.17053483,0.12320790,0.00113802,0.00153366,-0.00025431,0.00324583,-0.
 00100965,0.,0.00081672,-0.17053483,-0.12320783,-0.00105897,0.00148403,
 -0.00027258,0.00000816,0.00052242,0.00088352,-0.01040942,0.60792996,0.
 ,0.,0.02913144,0.,0.,-0.00368816,0.,0.,0.01416068,0.,0.,-0.00088586,0.
 ,0.,-0.00010777,-0.00003283,-0.00102132,-0.00030642,0.00003283,0.00102
 132,-0.00030642,0.,0.,-0.00011975,-0.00045829,-0.00000673,-0.00012862,
 0.00045829,0.00000673,-0.00012862,0.00007818,-0.01968635,-0.01093253,-
 0.00007818,0.01968634,-0.01093253,-0.00245329,-0.00141010,-0.00646564,
 0.00249485,-0.00136439,-0.00643432,0.00000099,-0.00232854,-0.00197487,
 -0.00040624,0.03595760,-0.00473883,0.00040624,-0.03595758,-0.00473877,
 -0.00113137,0.11720852,-0.28507624,0.00245328,0.00141010,-0.00646564,0
 .,0.,0.01416443,0.00113139,-0.11720844,-0.28507613,-0.00249485,0.00136
 439,-0.00643432,-0.00000098,0.00232856,-0.00197487,-0.00000002,-0.0000
 0013,0.65423665,0.00013325,0.00045160,0.,0.00000287,-0.00001361,0.,0.0
 0017937,0.00000825,0.,-0.00005037,0.00000570,0.,0.00001791,-0.00003240
 ,0.,-0.00001317,-0.00001203,-0.00000503,-0.00001317,-0.00001203,0.0000
 0503,-0.00001924,-0.00001007,0.,-0.00002097,0.00000200,-0.00001125,-0.
 00002097,0.00000200,0.00001125,-0.00005228,-0.00014681,-0.00006954,-0.
 00005228,-0.00014681,0.00006954,-0.00063478,-0.00006314,-0.00003205,-0
 .02697891,-0.00107653,0.01180393,-0.00005818,0.00002179,0.00016405,0.0
 0394209,0.00022362,-0.00079417,0.00394210,0.00022362,0.00079418,-0.000
 06780,0.00020416,-0.00008601,-0.00063479,-0.00006314,0.00003205,-0.191
 91078,-0.00453215,0.,-0.00006780,0.00020416,0.00008601,-0.02697893,-0.
 00107654,-0.01180394,-0.00005818,0.00002179,-0.00016405,0.00016297,-0.
 00043065,0.,0.45593402,-0.00018450,-0.00019868,0.,-0.00010612,-0.00005
 470,0.,-0.00000201,0.00004392,0.,0.00000570,0.00035068,0.,0.00001460,0
 .00002901,0.,-0.00000650,-0.00002138,-0.00000875,-0.00000650,-0.000021
 38,0.00000875,0.00007704,0.00000255,0.,-0.00003917,0.00000897,-0.00001
 435,-0.00003917,0.00000897,0.00001435,0.00052392,-0.00004630,-0.000042
 83,0.00052393,-0.00004630,0.00004283,0.00015736,-0.00119587,0.00004806
 ,0.00098760,0.01058796,0.00124163,-0.00001441,-0.00003747,0.00004350,-
 0.00021379,0.00502736,-0.00021119,-0.00021379,0.00502737,0.00021119,-0
 .00056212,-0.00002506,0.00005173,0.00015736,-0.00119587,-0.00004806,-0
 .00070144,-0.07673018,0.,-0.00056212,-0.00002506,-0.00005173,0.0009875
 8,0.01058796,-0.00124164,-0.00001441,-0.00003747,-0.00004350,0.0002574
 2,-0.00043878,0.,-0.01268217,0.51492198,0.,0.,-0.00088586,0.,0.,0.0001
 2133,0.,0.,-0.00351897,0.,0.,0.00054447,0.,0.,0.00003584,-0.00001334,0
 .00003621,0.00000064,0.00001334,-0.00003621,0.00000064,0.,0.,0.0000250
 4,0.00014062,0.00000362,0.00004039,-0.00014062,-0.00000362,0.00004039,
 0.00001792,0.00022172,0.00044796,-0.00001792,-0.00022171,0.00044796,0.
 00256488,-0.00018063,0.00165418,0.04214636,0.00237924,-0.01092036,0.00
 001043,0.00004280,0.00030134,-0.00474593,0.00092437,-0.00161209,0.0047
 4593,-0.00092437,-0.00161209,-0.00004095,-0.00030241,0.00059994,-0.002
 56488,0.00018063,0.00165418,0.00000001,0.,-0.06520307,0.00004095,0.000
 30241,0.00059995,-0.04214637,-0.00237925,-0.01092037,-0.00001043,-0.00
 004280,0.00030134,0.,0.,-0.00120766,0.00000001,0.,0.57879269,0.0000451
 9,0.00000703,0.,0.00035270,-0.00000780,0.,-0.00043698,-0.00025433,0.,0
 .00000287,-0.00010612,0.,0.00000239,-0.00007821,0.,0.00000879,0.000039
 07,0.00001420,0.00000879,0.00003907,-0.00001420,-0.00003161,0.00000841
 ,0.,0.00000100,-0.00001559,-0.00001029,0.00000100,-0.00001559,0.000010
 29,-0.00120207,-0.00016202,-0.00004796,-0.00120206,-0.00016202,0.00004
 796,-0.00003208,0.00056684,-0.00004487,-0.00004465,-0.00052269,0.00002
 942,-0.00005397,-0.00003169,-0.00006388,0.00505782,0.00017328,0.000204
 99,0.00505781,0.00017328,-0.00020499,0.01063835,-0.00093420,-0.0012174
 4,-0.00003208,0.00056684,0.00004487,-0.00020389,0.00018105,0.,0.010638
 36,-0.00093419,0.00121744,-0.00004465,-0.00052269,-0.00002942,-0.00005
 397,-0.00003169,0.00006388,-0.07675381,0.00066112,0.,-0.00005341,0.000
 10492,0.,0.51464923,-0.00000805,0.00018627,0.,-0.00000780,-0.00005376,
 0.,0.00042898,0.00016481,0.,-0.00001361,-0.00005470,0.,0.00001061,-0.0
 0001935,0.,-0.00000158,-0.00002144,-0.00001092,-0.00000158,-0.00002144
 ,0.00001092,-0.00001639,0.00000266,0.,-0.00002082,0.00000291,-0.000024
 67,-0.00002082,0.00000291,0.00002466,0.00006310,-0.00065115,-0.0000326
 7,0.00006310,-0.00065115,0.00003267,-0.00020103,-0.00006985,-0.0000800
 9,0.00014631,-0.00005493,-0.00006348,-0.00001162,-0.00009065,0.0001892
 6,-0.00022692,0.00398001,-0.00081106,-0.00022691,0.00398000,0.00081106
 ,0.00105969,-0.02714795,0.01189362,-0.00020103,-0.00006985,0.00008009,
 -0.00045038,0.00013290,0.,0.00105970,-0.02714792,-0.01189360,0.0001463
 1,-0.00005493,0.00006348,-0.00001162,-0.00009065,-0.00018926,0.0044367
 8,-0.19114975,0.00000002,0.00001515,0.00000379,0.,0.01247224,0.4551562
 7,0.,0.,-0.00368816,0.,0.,0.00057217,0.,0.,-0.00122477,0.,0.,0.0001213
 3,0.,0.,0.00002597,-0.00000396,0.00014973,0.00004179,0.00000396,-0.000
 14973,0.00004179,0.,0.,0.00001421,0.00004279,0.00000584,0.00001195,-0.
 00004279,-0.00000584,0.00001195,0.00018240,0.00267194,0.00170855,-0.00
 018240,-0.00267193,0.00170855,0.00030876,-0.00005189,0.00061002,-0.000
 22387,0.00001110,0.00045710,-0.00002538,0.00002015,0.00023253,-0.00093
 624,-0.00497345,-0.00153020,0.00093624,0.00497345,-0.00153020,-0.00234
 819,0.04220541,-0.01089537,-0.00030876,0.00005189,0.00061002,0.,0.,-0.
 00090797,0.00234819,-0.04220538,-0.01089535,0.00022387,-0.00001110,0.0
 0045710,0.00002538,-0.00002015,0.00023253,0.,0.,-0.06501054,0.,0.,0.00
 012125,0.00000001,0.00000003,0.57902987,0.00000854,-0.00002711,0.,0.00
 000239,0.00001061,0.,-0.00002149,-0.00003699,0.,0.00001791,0.00001460,
 0.,-0.00000494,0.00000186,0.,0.00000068,0.00000361,0.00000110,0.000000
 68,0.00000361,-0.00000110,0.00000352,0.00000226,0.,0.00000429,0.000000
 05,0.00000226,0.00000429,0.00000005,-0.00000226,-0.00001196,0.00006573
 ,0.00001140,-0.00001196,0.00006573,-0.00001140,0.00001449,-0.00002852,
 -0.00000768,0.00002899,0.00001290,0.00000570,0.00002148,-0.00001532,-0
 .00002500,-0.00009044,0.00007193,0.00000891,-0.00009044,0.00007193,-0.
 00000890,0.00011460,-0.00020105,0.00080983,0.00001449,-0.00002852,0.00
 000768,-0.00001342,-0.00002436,0.,0.00011460,-0.00020105,-0.00080982,0
 .00002899,0.00001290,-0.00000570,0.00002148,-0.00001532,0.00002500,0.0
 0052621,-0.00160946,0.,0.00000236,-0.00000900,0.,-0.27596867,0.0710469
 7,-0.00000007,0.30130474,0.00000043,-0.00001226,0.,-0.00007821,-0.0000
 1935,0.,0.00008451,-0.00009670,0.,-0.00003240,0.00002901,0.,0.00000186
 ,0.00001295,0.,-0.00000234,-0.00001520,-0.00000775,-0.00000234,-0.0000
 1520,0.00000775,-0.00000512,0.00002763,0.,-0.00004306,-0.00003228,-0.0
 0003199,-0.00004306,-0.00003228,0.00003199,0.00026546,-0.00008900,-0.0
 0002191,0.00026546,-0.00008900,0.00002191,-0.00005911,0.00003293,0.000
 03258,-0.00003063,0.00016775,-0.00001696,-0.00001282,0.00004676,0.0000
 3650,-0.00097654,-0.00032902,0.00007482,-0.00097654,-0.00032902,-0.000
 07482,-0.00209957,-0.00054466,-0.00038479,-0.00005911,0.00003293,-0.00
 003258,0.00000537,-0.00004503,0.,-0.00209958,-0.00054466,0.00038478,-0
 .00003063,0.00016775,0.00001696,-0.00001282,0.00004676,-0.00003650,0.0
 3441746,-0.01363367,0.00000002,0.00001722,-0.00003104,0.,0.07375203,-0
 .06254062,0.00000002,-0.07917874,0.07151254,0.,0.,-0.00010777,0.,0.,0.
 00002597,0.,0.,0.00017437,0.,0.,0.00003584,0.,0.,-0.00000091,0.0000002
 6,0.00000570,-0.00000004,-0.00000026,-0.00000570,-0.00000004,0.,0.,-0.
 00000513,-0.00001414,-0.00000744,-0.00000787,0.00001414,0.00000744,-0.
 00000787,-0.00006622,0.00008230,0.00005644,0.00006622,-0.00008231,0.00
 005644,-0.00002945,-0.00005166,-0.00009393,-0.00001962,-0.00001408,0.0
 0004925,0.00002670,-0.00006295,-0.00000965,0.00031244,-0.00008089,-0.0
 0003282,-0.00031244,0.00008089,-0.00003282,0.00076385,0.00112906,-0.00
 055659,0.00002945,0.00005166,-0.00009393,0.,0.,-0.00011943,-0.00076385
 ,-0.00112906,-0.00055659,0.00001962,0.00001408,0.00004925,-0.00002670,
 0.00006295,-0.00000965,0.,0.,-0.00034141,0.,0.,0.00001415,-0.00000006,
 0.00000002,-0.04018252,0.00000007,-0.00000003,0.04184823,-0.00000746,0
 .00000893,-0.00003283,0.00000879,-0.00000158,-0.00000396,0.00004135,0.
 00001301,-0.00014655,-0.00001317,-0.00000650,-0.00001334,0.00000068,-0
 .00000234,0.00000026,-0.00000240,-0.00000021,-0.00000299,-0.00000109,-
 0.00000065,0.00000146,-0.00000268,-0.00000384,0.00000196,0.00000891,0.
 00000685,0.00000470,-0.00000742,0.00000188,0.00000240,0.00000548,0.000
 02766,0.00000316,-0.00003740,0.00008264,-0.00000656,-0.00002007,0.0000
 3019,0.00006437,-0.00004478,-0.00003990,0.00000333,-0.00002978,0.00007
 476,0.00004618,0.00008274,0.00003716,-0.00002481,0.00024220,-0.0000637
 8,0.00008149,-0.00006509,-0.00000230,0.00118184,-0.00006421,-0.0000397
 1,0.00008218,-0.00002077,0.00005220,0.00000811,0.00053284,0.00115306,0
 .00064620,-0.00003942,-0.00004796,-0.00001318,0.00000039,-0.00003834,-
 0.00000702,-0.00016745,0.00441044,0.00025742,0.00000255,0.00001533,-0.
 00000614,-0.09517469,-0.04480219,-0.09594784,-0.01300306,-0.01157080,-
 0.02581536,0.10153315,-0.00000956,-0.00002196,-0.00102132,0.00003907,-
 0.00002144,0.00014973,-0.00000454,-0.00002344,-0.00036899,-0.00001203,
 -0.00002138,0.00003621,0.00000361,-0.00001520,0.00000570,-0.00000021,0
 .00004254,0.00001175,-0.00000065,-0.00004209,0.00001306,-0.00000901,0.
 00000043,0.00000292,0.00000855,-0.00000121,0.00000031,-0.00001540,-0.0
 0000028,0.00000577,-0.00007374,0.00064466,0.00037386,-0.00016479,-0.00
 082789,0.00048384,0.00008638,0.00005644,0.00017814,-0.00006414,0.00006
 156,0.00024457,0.00001950,0.00016629,0.00012330,0.00021171,-0.00088459
 ,-0.00004474,0.00067866,0.00128814,-0.00039405,0.00150541,0.00292862,0
 .00023022,-0.00008566,0.00010115,0.00019861,-0.00005410,-0.00005096,-0
 .00046705,0.00070482,-0.00765937,-0.00061078,0.00014148,-0.00003366,0.
 00023117,-0.00000403,-0.00001270,0.00005982,-0.01614939,-0.01117814,-0
 .02898764,0.00002047,0.00000159,0.00004335,-0.04254162,-0.07689943,-0.
 07327012,0.00497591,0.00322344,0.00789009,0.04504006,0.08537798,-0.000
 00708,0.00002768,-0.00030642,0.00001420,-0.00001092,0.00004179,0.00003
 913,0.00001604,-0.00009663,-0.00000503,-0.00000875,0.00000064,0.000001
 11,-0.00000775,-0.00000004,-0.00000299,0.00001175,-0.00000268,-0.00000
 146,-0.00001306,0.00000498,-0.00000193,-0.00000634,0.00000092,0.000009
 25,0.00000587,0.00000253,0.00000279,0.00000538,0.00000024,-0.00006005,
 0.00009998,0.00010046,0.00000056,-0.00024894,0.00008817,0.00001975,0.0
 0002253,0.00003927,0.00004156,0.00003698,0.00004471,0.00001671,-0.0000
 2368,0.00002077,0.00019978,-0.00029912,0.00012207,-0.00016340,0.000448
 48,0.00020384,0.00010654,0.00145472,0.00046376,0.00000279,-0.00002587,
 0.00005922,-0.00009348,-0.00004996,-0.00012690,-0.00066926,-0.00086945
 ,0.00127178,0.00009789,0.00002088,0.00007663,0.00001352,-0.00008248,0.
 00000140,0.00111681,0.00278500,-0.00236018,0.00002457,-0.00000973,0.00
 001180,-0.09699674,-0.07763075,-0.22525123,0.00290286,-0.00048751,-0.0
 0006697,0.10649714,0.08474850,0.24235644,-0.00000746,0.00000893,0.0000
 3283,0.00000879,-0.00000158,0.00000396,0.00004135,0.00001301,0.0001465
 5,-0.00001317,-0.00000650,0.00001334,0.00000068,-0.00000234,-0.0000002
 6,-0.00000109,-0.00000065,-0.00000146,-0.00000240,-0.00000021,0.000002
 99,-0.00000268,-0.00000384,-0.00000196,-0.00000742,0.00000188,-0.00000
 240,0.00000891,0.00000685,-0.00000470,-0.00003740,0.00008264,0.0000065
 5,0.00000548,0.00002766,-0.00000316,-0.00006421,-0.00003971,-0.0000821
 8,-0.00003942,-0.00004796,0.00001318,0.00000039,-0.00003834,0.00000702
 ,0.00024220,-0.00006378,-0.00008149,0.00008274,0.00003715,0.00002481,0
 .00053284,0.00115306,-0.00064620,-0.00002007,0.00003019,-0.00006437,-0
 .00002077,0.00005220,-0.00000811,-0.00006509,-0.00000230,-0.00118184,-
 0.00004478,-0.00003990,-0.00000333,-0.00002978,0.00007476,-0.00004618,
 -0.00016744,0.00441044,-0.00025742,0.00000255,0.00001533,0.00000614,-0
 .09517475,-0.04480218,0.09594790,-0.01300307,-0.01157079,0.02581536,0.
 00623874,0.00573064,-0.01310703,0.10153322,-0.00000956,-0.00002196,0.0
 0102132,0.00003907,-0.00002144,-0.00014973,-0.00000454,-0.00002344,0.0
 0036899,-0.00001203,-0.00002138,-0.00003621,0.00000361,-0.00001520,-0.
 00000570,-0.00000065,-0.00004209,-0.00001306,-0.00000021,0.00004254,-0
 .00001175,-0.00000901,0.00000043,-0.00000292,-0.00001540,-0.00000028,-
 0.00000577,0.00000855,-0.00000121,-0.00000031,-0.00016479,-0.00082789,
 -0.00048384,-0.00007374,0.00064466,-0.00037386,-0.00008566,0.00010115,
 -0.00019861,0.00014148,-0.00003366,-0.00023117,-0.00000403,-0.00001270
 ,-0.00005982,0.00067866,0.00128814,0.00039405,0.00021171,-0.00088459,0
 .00004474,0.00070482,-0.00765937,0.00061078,0.00008638,0.00005644,-0.0
 0017814,-0.00005410,-0.00005096,0.00046705,0.00150541,0.00292862,-0.00
 023022,-0.00006414,0.00006156,-0.00024457,0.00001950,0.00016629,-0.000
 12330,-0.01614941,-0.01117811,0.02898763,0.00002047,0.00000159,-0.0000
 4335,-0.04254161,-0.07689937,0.07327004,0.00497591,0.00322343,-0.00789
 009,0.00573065,0.00397966,-0.01000560,0.04504005,0.08537791,0.00000708
 ,-0.00002768,-0.00030642,-0.00001419,0.00001092,0.00004179,-0.00003913
 ,-0.00001604,-0.00009663,0.00000503,0.00000875,0.00000064,-0.00000110,
 0.00000775,-0.00000004,0.00000146,0.00001306,0.00000498,0.00000299,-0.
 00001175,-0.00000268,0.00000193,0.00000634,0.00000092,-0.00000279,-0.0
 0000538,0.00000024,-0.00000925,-0.00000587,0.00000253,-0.00000056,0.00
 024894,0.00008817,0.00006005,-0.00009998,0.00010046,-0.00000279,0.0000
 2587,0.00005922,-0.00009789,-0.00002088,0.00007663,-0.00001352,0.00008
 248,0.00000140,0.00016340,-0.00044848,0.00020384,-0.00019978,0.0002991
 2,0.00012207,0.00066926,0.00086944,0.00127178,-0.00001975,-0.00002253,
 0.00003927,0.00009347,0.00004996,-0.00012690,-0.00010655,-0.00145472,0
 .00046376,-0.00004156,-0.00003698,0.00004471,-0.00001671,0.00002368,0.
 00002077,-0.00111680,-0.00278499,-0.00236019,-0.00002457,0.00000973,0.
 00001180,0.09699679,0.07763066,-0.22525117,-0.00290287,0.00048750,-0.0
 0006696,0.01310704,0.01000560,-0.01672273,-0.10649720,-0.08474842,0.24
 235639,-0.00004351,-0.00000253,0.,-0.00003161,-0.00001639,0.,-0.000012
 65,-0.00000117,0.,-0.00001924,0.00007704,0.,0.00000352,-0.00000512,0.,
 -0.00000268,-0.00000901,-0.00000193,-0.00000268,-0.00000901,0.00000193
 ,0.00001262,-0.00000170,0.,-0.00001516,0.00000245,-0.00000758,-0.00001
 516,0.00000245,0.00000758,0.00016797,0.00003482,-0.00002046,0.00016797
 ,0.00003482,0.00002046,-0.00008193,-0.00026345,-0.00001893,-0.00050891
 ,0.00208769,-0.00037671,0.00002161,0.00004256,0.00003009,-0.00036209,0
 .00095361,0.00007204,-0.00036209,0.00095361,-0.00007204,0.00003495,0.0
 0006143,0.00003287,-0.00008193,-0.00026345,0.00001893,-0.01367368,-0.0
 3441491,0.,0.00003495,0.00006143,-0.00003287,-0.00050891,0.00208769,0.
 00037671,0.00002161,0.00004256,-0.00003009,-0.00009504,-0.00008418,0.,
 -0.06253814,-0.07366840,0.,0.00002882,0.00003310,0.,0.00002794,0.00000
 487,0.,-0.00003225,0.00004335,0.00003184,-0.00003225,0.00004335,-0.000
 03184,0.07151463,0.00002236,-0.00001481,0.,0.00000841,0.00000266,0.,0.
 00002592,0.00000912,0.,-0.00001007,0.00000255,0.,0.00000226,0.00002763
 ,0.,-0.00000384,0.00000043,-0.00000634,-0.00000384,0.00000043,0.000006
 34,-0.00000170,-0.00000512,0.,-0.00000346,0.00000062,-0.00000078,-0.00
 000346,0.00000062,0.00000078,-0.00001138,0.00002949,-0.00000688,-0.000
 01138,0.00002949,0.00000688,-0.00005933,-0.00001175,-0.00001063,0.0002
 2762,0.00010503,-0.00082994,0.00000205,0.00003681,0.00001865,-0.000089
 62,-0.00008986,-0.00000298,-0.00008963,-0.00008986,0.00000298,0.000028
 20,0.00001214,0.00000752,-0.00005933,-0.00001175,0.00001063,0.00152541
 ,0.00054048,0.,0.00002820,0.00001214,-0.00000752,0.00022761,0.00010503
 ,0.00082994,0.00000205,0.00003681,-0.00001865,0.00003836,-0.00001825,0
 .,-0.07094161,-0.27607595,0.,-0.00001464,0.00001746,0.,-0.00000241,0.0
 0000315,0.,0.00000030,0.00000409,0.00000174,0.00000030,0.00000409,-0.0
 0000174,0.07910628,0.30138265,0.,0.,-0.00011975,0.,0.,0.00001421,0.,0.
 ,-0.00010281,0.,0.,0.00002504,0.,0.,-0.00000513,0.00000196,0.00000292,
 0.00000092,-0.00000196,-0.00000292,0.00000092,0.,0.,-0.00000096,0.0000
 0551,-0.00000022,-0.00000012,-0.00000551,0.00000022,-0.00000012,-0.000
 01358,0.00001857,0.00004905,0.00001358,-0.00001857,0.00004905,0.000079
 88,0.00006592,0.00005311,0.00112395,-0.00077025,-0.00057324,-0.0000243
 2,-0.00004389,-0.00000098,-0.00008122,-0.00030369,-0.00002633,0.000081
 22,0.00030369,-0.00002633,-0.00005260,0.00002903,-0.00009318,-0.000079
 88,-0.00006592,0.00005311,0.,0.,-0.00033559,0.00005260,-0.00002903,-0.
 00009318,-0.00112394,0.00077025,-0.00057324,0.00002432,0.00004389,-0.0
 0000098,0.,0.,0.00017551,0.,0.,-0.04023268,0.,0.,0.00003607,0.,0.,-0.0
 0000510,0.00000753,-0.00001427,-0.00000778,-0.00000753,0.00001427,-0.0
 0000778,0.,0.,0.04192360,-0.00005029,0.00005345,-0.00045829,0.00000100
 ,-0.00002082,0.00004279,-0.00002482,0.00000988,-0.00097391,-0.00002097
 ,-0.00003917,0.00014062,0.00000429,-0.00004306,-0.00001414,0.00000891,
 0.00000855,0.00000925,-0.00000742,-0.00001540,-0.00000279,-0.00001516,
 -0.00000346,0.00000551,0.00004033,0.00000026,0.00001145,-0.00003972,0.
 00000067,0.00001253,0.00006367,0.00006176,0.00023790,-0.00003574,-0.00
 013935,0.00022588,0.00061764,0.00007244,0.00035942,0.00295995,-0.00150
 515,0.00028506,0.00006146,-0.00004383,0.00010510,-0.00083686,-0.000195
 74,-0.00005763,0.00122047,-0.00067134,-0.00040603,0.00005757,-0.000087
 00,0.00017157,-0.00079317,0.00016455,0.00046476,-0.01118651,0.01612855
 ,-0.02902843,0.00009801,0.00008088,0.00019615,-0.00763354,-0.00069366,
 -0.00062291,-0.00000499,-0.00000742,0.00007495,-0.00002272,0.00000339,
 -0.00036278,-0.07708526,0.04264244,-0.07340499,-0.00002099,0.00001144,
 0.00003591,0.00000054,0.00000892,0.00000294,-0.00000044,0.00001548,0.0
 0000569,-0.00000119,-0.00000857,0.00000029,0.00322965,-0.00496184,0.00
 788467,0.08554683,-0.00004919,-0.00001921,-0.00000673,-0.00001559,0.00
 000291,0.00000584,-0.00000949,-0.00000764,0.00003472,0.00000200,0.0000
 0897,0.00000362,0.00000005,-0.00003228,-0.00000744,0.00000685,-0.00000
 121,0.00000587,0.00000188,-0.00000028,-0.00000538,0.00000245,0.0000006
 2,-0.00000022,0.00000026,-0.00000237,0.00000298,0.00000067,-0.00000112
 ,-0.00000146,0.00003945,-0.00004669,-0.00000334,0.00004600,-0.00003925
 ,0.00001172,-0.00002522,0.00000570,-0.00000448,-0.00001051,-0.00007529
 ,-0.00121205,-0.00001724,-0.00005422,-0.00002640,-0.00003569,0.0000946
 0,0.00003056,0.00009000,0.00024396,-0.00007402,-0.00003024,-0.00002201
 ,-0.00006293,-0.00008385,-0.00003727,0.00000493,-0.00443059,-0.0001481
 6,-0.00027859,0.00003896,-0.00006718,-0.00008330,-0.00119890,0.0005238
 1,-0.00066122,0.00003067,-0.00000287,0.00000284,-0.00001423,0.00004219
 ,0.00014760,0.04492675,-0.09522713,0.09604316,0.00000682,-0.00001303,0
 .00001350,0.00000390,-0.00000270,-0.00000198,-0.00000189,-0.00000773,-
 0.00000246,-0.00000685,0.00000873,-0.00000464,0.01158603,-0.01297468,0
 .02581094,-0.04518077,0.10154772,-0.00004774,0.00009413,-0.00012862,-0
 .00001029,-0.00002466,0.00001195,0.00002936,0.00000671,-0.00029830,-0.
 00001125,-0.00001435,0.00004039,0.00000226,-0.00003199,-0.00000787,0.0
 0000470,0.00000031,0.00000253,-0.00000240,-0.00000577,0.00000024,-0.00
 000758,-0.00000078,-0.00000012,0.00001145,0.00000298,-0.00000270,-0.00
 001253,0.00000146,0.00000490,0.00003708,-0.00004277,0.00004393,0.00001
 990,-0.00009972,0.00007710,0.00009334,0.00005930,0.00009856,0.00143989
 ,-0.00011067,0.00048697,-0.00001831,-0.00003093,0.00002864,-0.00028320
 ,-0.00019524,0.00011697,0.00042023,0.00016365,0.00018947,0.00002248,-0
 .00002205,0.00003793,-0.00024079,0.00000022,0.00008668,0.00281291,-0.0
 0111772,-0.00239767,-0.00002518,-0.00000257,0.00006028,-0.00086914,0.0
 0067662,0.00131000,-0.00003859,-0.00002791,-0.00000422,0.00001458,-0.0
 0003873,-0.00009744,-0.07773641,0.09697059,-0.22501661,-0.00000850,0.0
 0000517,0.00000088,-0.00000652,0.00000206,0.00000095,0.00000539,-0.000
 00278,0.00000017,0.00000587,-0.00000946,0.00000250,-0.00048388,-0.0028
 9516,-0.00006891,0.08483150,-0.10650053,0.24218549,-0.00005029,0.00005
 345,0.00045829,0.00000100,-0.00002082,-0.00004279,-0.00002482,0.000009
 88,0.00097392,-0.00002097,-0.00003917,-0.00014062,0.00000429,-0.000043
 06,0.00001414,-0.00000742,-0.00001540,0.00000279,0.00000891,0.00000855
 ,-0.00000925,-0.00001516,-0.00000346,-0.00000551,-0.00003972,0.0000006
 7,-0.00001253,0.00004033,0.00000026,-0.00001145,-0.00003574,-0.0001393
 5,-0.00022588,0.00006367,0.00006176,-0.00023790,-0.00079317,0.00016455
 ,-0.00046476,-0.00763354,-0.00069366,0.00062291,-0.00000499,-0.0000074
 2,-0.00007495,0.00122047,-0.00067134,0.00040603,-0.00083687,-0.0001957
 4,0.00005763,0.00009801,0.00008088,-0.00019615,0.00061764,0.00007244,-
 0.00035942,-0.01118651,0.01612855,0.02902843,0.00005757,-0.00008700,-0
 .00017157,0.00295995,-0.00150515,-0.00028506,0.00006146,-0.00004383,-0
 .00010510,-0.00002272,0.00000339,0.00036278,-0.07708526,0.04264243,0.0
 7340498,-0.00002099,0.00001144,-0.00003591,0.00000054,0.00000892,-0.00
 000294,-0.00000119,-0.00000857,-0.00000029,-0.00000044,0.00001548,-0.0
 0000569,0.00322965,-0.00496184,-0.00788467,0.00399896,-0.00571531,-0.0
 1002856,0.08554682,-0.00004919,-0.00001921,0.00000673,-0.00001559,0.00
 000291,-0.00000584,-0.00000949,-0.00000764,-0.00003472,0.00000200,0.00
 000897,-0.00000362,0.00000005,-0.00003228,0.00000744,0.00000188,-0.000
 00028,0.00000538,0.00000685,-0.00000121,-0.00000587,0.00000245,0.00000
 062,0.00000022,0.00000067,-0.00000112,0.00000146,0.00000026,-0.0000023
 7,-0.00000298,0.00004600,-0.00003925,-0.00001172,0.00003945,-0.0000466
 9,0.00000334,-0.00008385,-0.00003727,-0.00000493,-0.00119890,0.0005238
 1,0.00066122,0.00003067,-0.00000287,-0.00000284,0.00009000,0.00024396,
 0.00007402,-0.00003569,0.00009460,-0.00003056,0.00003896,-0.00006718,0
 .00008330,-0.00002522,0.00000570,0.00000447,-0.00443059,-0.00014817,0.
 00027860,-0.00003024,-0.00002201,0.00006293,-0.00001051,-0.00007529,0.
 00121204,-0.00001724,-0.00005422,0.00002640,-0.00001423,0.00004219,-0.
 00014760,0.04492674,-0.09522712,-0.09604316,0.00000682,-0.00001303,-0.
 00001350,0.00000390,-0.00000270,0.00000198,-0.00000685,0.00000873,0.00
 000464,-0.00000189,-0.00000773,0.00000246,0.01158603,-0.01297468,-0.02
 581094,-0.00571531,0.00622490,0.01312238,-0.04518075,0.10154771,0.0000
 4774,-0.00009413,-0.00012862,0.00001029,0.00002466,0.00001195,-0.00002
 936,-0.00000671,-0.00029830,0.00001125,0.00001435,0.00004039,-0.000002
 26,0.00003199,-0.00000787,0.00000240,0.00000577,0.00000024,-0.00000470
 ,-0.00000031,0.00000253,0.00000758,0.00000078,-0.00000012,0.00001253,-
 0.00000146,0.00000490,-0.00001145,-0.00000298,-0.00000270,-0.00001990,
 0.00009972,0.00007710,-0.00003708,0.00004277,0.00004393,0.00024079,-0.
 00000022,0.00008668,0.00086914,-0.00067662,0.00131000,0.00003859,0.000
 02791,-0.00000422,-0.00042023,-0.00016365,0.00018947,0.00028320,0.0001
 9524,0.00011697,0.00002518,0.00000257,0.00006028,-0.00009334,-0.000059
 30,0.00009856,-0.00281291,0.00111771,-0.00239767,-0.00002248,0.0000220
 5,0.00003793,-0.00143990,0.00011067,0.00048697,0.00001831,0.00003093,0
 .00002864,-0.00001458,0.00003873,-0.00009744,0.07773641,-0.09697058,-0
 .22501663,0.00000850,-0.00000517,0.00000088,0.00000652,-0.00000206,0.0
 0000095,-0.00000587,0.00000946,0.00000250,-0.00000539,0.00000278,0.000
 00017,0.00048388,0.00289516,-0.00006891,0.01002856,-0.01312238,-0.0168
 1601,-0.08483149,0.10650052,0.24218551,0.00005805,0.00003454,0.0000166
 2,0.00001951,0.00000933,0.00001883,0.00000282,0.00001107,0.00001898,-0
 .00000308,-0.00001164,0.00003740,-0.00000682,0.00001397,-0.00000578,0.
 00000093,-0.00002122,-0.00000352,-0.00000229,-0.00000724,0.00000246,-0
 .00001826,-0.00000267,0.00001427,-0.00002143,0.00001243,-0.00000239,-0
 .00001482,-0.00000585,-0.00000558,-0.00001773,0.00000788,-0.00010730,-
 0.00023633,-0.00004064,-0.00000762,-0.00010889,-0.00000305,-0.00017105
 ,-0.00034339,-0.00000307,0.00095858,-0.00005909,0.00000037,-0.00004483
 ,0.00043859,-0.00000377,-0.00058207,0.00219177,0.00001383,0.00064486,-
 0.00001996,-0.00000255,-0.00011611,-0.00024221,0.00000002,-0.00008589,
 -0.00048429,0.00000029,-0.00123624,-0.00023642,0.00004138,-0.00000643,
 0.00098402,0.00000527,0.00150849,-0.35564188,-0.00209169,0.16624869,0.
 00006372,-0.00004411,0.00002549,0.00003938,-0.00003204,0.00001231,-0.0
 0001341,0.00000047,-0.00000614,-0.00001531,0.00001187,0.00002113,0.000
 00444,0.00000255,-0.00001553,0.00003392,-0.00000175,0.00001424,-0.0000
 1974,-0.00000529,-0.00003196,0.00000371,-0.00001656,0.00005414,-0.0000
 9696,0.00005283,-0.00002264,0.37389128,-0.00000076,-0.00023657,0.00103
 355,0.00001768,0.00001445,-0.00000201,0.00000864,0.00002324,-0.0000014
 2,-0.00000636,-0.00000273,-0.00001144,0.00001981,-0.00003936,0.0000556
 8,-0.00006730,-0.00007214,0.00001167,0.00001846,-0.00000525,-0.0000449
 4,-0.00001717,-0.00001175,0.00000956,0.00001196,0.00001394,0.00001214,
 0.00000629,0.00000323,-0.00001042,-0.00001609,-0.00042071,-0.00079941,
 0.00024431,0.00002390,-0.00057616,0.00000013,0.00000959,-0.00000221,-0
 .00000170,0.00007376,0.00000022,0.00000041,-0.00012134,-0.00000024,-0.
 00000494,0.00093135,-0.00000321,0.00001456,0.00056963,0.00000315,0.000
 02883,-0.00042058,0.00080414,-0.00000271,-0.00014280,0.00000356,0.0000
 1446,-0.00004236,0.00000052,-0.00025043,0.00002482,0.00058463,0.000002
 36,-0.00069968,-0.00000513,-0.00209041,0.00469677,0.00096578,-0.000029
 66,-0.00024478,-0.00104062,-0.00002152,0.00001875,0.00004979,0.0000412
 5,0.00002803,-0.00003045,-0.00000307,-0.00002195,-0.00001588,0.0000137
 6,-0.00000274,0.00003236,-0.00002116,-0.00010373,-0.00000322,-0.000035
 76,-0.00003635,-0.00005278,0.00000505,-0.00000226,0.00002384,0.0000459
 1,0.00006332,-0.00002180,0.00218041,-0.00186272,0.00000009,0.00000261,
 -0.00086444,0.00002321,0.00001729,0.00008804,-0.00000466,-0.00000274,-
 0.00046780,0.00002008,0.00001376,0.00006242,-0.00000623,0.00002505,-0.
 00001237,0.00001194,0.00004012,-0.00000327,-0.00001030,-0.00001908,0.0
 0001550,0.00000820,-0.00000071,-0.00000241,0.00003530,-0.00000835,0.00
 000282,-0.00001442,0.00000028,0.00000706,0.00000264,0.00018590,0.00059
 643,-0.00019514,-0.00003934,0.00046607,-0.00004634,-0.00000279,0.00049
 121,-0.00051757,0.00000034,0.00141471,0.00019844,0.00000107,-0.0005241
 7,-0.00126803,-0.00000491,-0.00046967,0.00782969,0.00004237,0.00001801
 ,-0.00000030,-0.00018660,0.00059756,-0.00039188,-0.00000202,0.00000185
 ,-0.00029561,-0.00000701,-0.00201089,-0.00019997,0.00003426,0.00047763
 ,0.00000760,0.00000202,0.00180143,0.22410581,0.00130064,-0.17064139,-0
 .00000389,-0.00001085,-0.00087434,0.00003656,0.00000768,0.00012714,0.0
 0001175,-0.00000691,0.00007245,-0.00000984,-0.00000871,0.00000546,0.00
 001247,0.00001873,0.00000571,0.00001043,-0.00005781,0.00000953,-0.0000
 2583,-0.00000017,-0.00001633,0.00003577,-0.00002760,0.00004826,-0.0001
 1391,0.00002254,-0.00000623,-0.19819039,-0.00114912,0.16375309,0.00006
 372,-0.00004411,-0.00002549,-0.00001341,0.00000047,0.00000614,-0.00048
 429,0.00000029,0.00123624,0.00003938,-0.00003204,-0.00001231,-0.000015
 31,0.00001187,-0.00002113,0.00003392,-0.00000175,-0.00001424,0.0000044
 4,0.00000255,0.00001553,-0.00001974,-0.00000529,0.00003196,-0.00009696
 ,0.00005283,0.00002264,0.00000371,-0.00001656,-0.00005414,-0.00001996,
 -0.00000255,0.00011611,-0.00023642,0.00004138,0.00000643,-0.00034339,-
 0.00000308,-0.00095858,-0.00010889,-0.00000305,0.00017105,-0.00005909,
 0.00000037,0.00004482,0.00043859,-0.00000377,0.00058207,0.00219177,0.0
 0001384,-0.00064486,-0.00001773,0.00000788,0.00010730,0.00098402,0.000
 00527,-0.00150849,0.00000282,0.00001107,-0.00001898,-0.00023634,-0.000
 04064,0.00000762,-0.00024221,0.00000002,0.00008589,-0.35564189,-0.0020
 9121,-0.16624869,0.00005805,0.00003453,-0.00001663,-0.00000308,-0.0000
 1164,-0.00003740,0.00001951,0.00000933,-0.00001883,-0.00000682,0.00001
 397,0.00000578,-0.00000229,-0.00000724,-0.00000246,0.00000093,-0.00002
 122,0.00000352,-0.00001826,-0.00000267,-0.00001427,-0.00001482,-0.0000
 0585,0.00000558,-0.00002143,0.00001243,0.00000239,-0.02017073,-0.00010
 500,-0.03110207,0.37389129,-0.00002966,-0.00024478,0.00104061,0.000041
 25,0.00002803,0.00003045,0.00001446,-0.00004236,-0.00000051,-0.0000215
 2,0.00001875,-0.00004979,-0.00000307,-0.00002195,0.00001588,-0.0000211
 6,-0.00010373,0.00000322,0.00001376,-0.00000274,-0.00003236,-0.0000357
 6,-0.00003635,0.00005278,0.00004591,0.00006332,0.00002180,0.00000505,-
 0.00000226,-0.00002384,0.00002883,-0.00042058,-0.00080413,-0.00025043,
 0.00002482,-0.00058462,-0.00000170,0.00007376,-0.00000022,0.00000013,0
 .00000959,0.00000221,0.00000041,-0.00012134,0.00000024,-0.00000494,0.0
 0093135,0.00000320,0.00001456,0.00056963,-0.00000316,-0.00001609,-0.00
 042071,0.00079941,0.00000236,-0.00069968,0.00000513,0.00000864,0.00002
 324,0.00000142,0.00024432,0.00002390,0.00057616,-0.00000271,-0.0001428
 0,-0.00000356,-0.00208973,0.00469677,-0.00096530,-0.00000076,-0.000236
 57,-0.00103355,-0.00000636,-0.00000273,0.00001144,0.00001768,0.0000144
 5,0.00000201,0.00001981,-0.00003936,-0.00005568,0.00001846,-0.00000525
 ,0.00004494,-0.00006730,-0.00007214,-0.00001167,-0.00001717,-0.0000117
 5,-0.00000956,0.00000629,0.00000323,0.00001042,0.00001196,0.00001394,-
 0.00001214,-0.00010510,-0.00208340,-0.00018018,0.00217983,-0.00186273,
 0.00000389,0.00001085,-0.00087433,-0.00001175,0.00000691,0.00007245,0.
 00029561,0.00000701,-0.00201089,-0.00003656,-0.00000768,0.00012714,0.0
 0000984,0.00000871,0.00000546,-0.00001043,0.00005781,0.00000953,-0.000
 01247,-0.00001873,0.00000571,0.00002583,0.00000017,-0.00001633,0.00011
 391,-0.00002254,-0.00000623,-0.00003577,0.00002760,0.00004826,0.000000
 30,0.00018660,0.00059756,0.00019997,-0.00003426,0.00047762,0.00051757,
 -0.00000034,0.00141471,0.00004634,0.00000279,0.00049121,-0.00019844,-0
 .00000107,-0.00052417,0.00126803,0.00000491,-0.00046967,-0.00782969,-0
 .00004235,0.00001801,-0.00000264,-0.00018590,0.00059643,-0.00000760,-0
 .00000202,0.00180143,0.00000466,0.00000274,-0.00046780,0.00019514,0.00
 003934,0.00046607,0.00039188,0.00000202,0.00000185,-0.22410581,-0.0013
 0017,-0.17064138,-0.00000009,-0.00000261,-0.00086444,-0.00002008,-0.00
 001376,0.00006242,-0.00002321,-0.00001729,0.00008804,0.00000623,-0.000
 02505,-0.00001237,0.00001030,0.00001908,0.00001550,-0.00001194,-0.0000
 4012,-0.00000327,-0.00000820,0.00000071,-0.00000241,0.00001442,-0.0000
 0028,0.00000706,-0.00003530,0.00000835,0.00000282,0.03110207,0.0001801
 6,0.00617619,0.19819038,0.00114866,0.16375308,0.00006372,-0.00004411,0
 .00002549,-0.00001341,0.00000047,-0.00000614,-0.00048429,0.00000029,-0
 .00123624,0.00003938,-0.00003204,0.00001231,-0.00001531,0.00001187,0.0
 0002113,0.00000444,0.00000255,-0.00001553,0.00003392,-0.00000175,0.000
 01424,-0.00001974,-0.00000529,-0.00003196,0.00000371,-0.00001656,0.000
 05414,-0.00009696,0.00005283,-0.00002264,-0.00023642,0.00004138,-0.000
 00643,-0.00001996,-0.00000255,-0.00011611,0.00098402,0.00000527,0.0015
 0849,-0.00024221,0.00000002,-0.00008589,-0.35564190,-0.00209169,0.1662
 4876,0.00219177,0.00001383,0.00064486,0.00043859,-0.00000377,-0.000582
 07,-0.00023634,-0.00004064,-0.00000762,-0.00034339,-0.00000308,0.00095
 858,0.00000282,0.00001107,0.00001898,-0.00001773,0.00000788,-0.0001073
 0,-0.00010889,-0.00000305,-0.00017105,-0.00005909,0.00000037,-0.000044
 83,0.00005805,0.00003453,0.00001662,-0.00000308,-0.00001164,0.00003740
 ,0.00001951,0.00000933,0.00001883,-0.00000682,0.00001397,-0.00000578,0
 .00000093,-0.00002122,-0.00000352,-0.00000229,-0.00000724,0.00000246,-
 0.00001826,-0.00000267,0.00001427,-0.00002143,0.00001243,-0.00000239,-
 0.00001482,-0.00000585,-0.00000558,0.00001711,-0.00000007,-0.00000537,
 0.00002379,-0.00000018,-0.00005175,0.37389130,-0.00002966,-0.00024478,
 -0.00104061,0.00004125,0.00002803,-0.00003045,0.00001446,-0.00004236,0
 .00000052,-0.00002152,0.00001875,0.00004979,-0.00000307,-0.00002195,-0
 .00001588,0.00001376,-0.00000274,0.00003236,-0.00002116,-0.00010373,-0
 .00000322,-0.00003576,-0.00003635,-0.00005278,0.00000505,-0.00000226,0
 .00002384,0.00004591,0.00006332,-0.00002180,-0.00025043,0.00002482,0.0
 0058463,0.00002883,-0.00042058,0.00080414,0.00000236,-0.00069968,-0.00
 000513,-0.00000271,-0.00014280,0.00000356,-0.00209041,0.00469675,0.000
 96578,0.00001456,0.00056963,0.00000315,-0.00000494,0.00093135,-0.00000
 321,0.00024431,0.00002390,-0.00057616,-0.00000170,0.00007376,0.0000002
 2,0.00000864,0.00002324,-0.00000142,-0.00001609,-0.00042071,-0.0007994
 1,0.00000013,0.00000959,-0.00000221,0.00000041,-0.00012134,-0.00000024
 ,-0.00000076,-0.00023657,0.00103355,-0.00000636,-0.00000273,-0.0000114
 4,0.00001768,0.00001445,-0.00000201,0.00001981,-0.00003936,0.00005568,
 -0.00006730,-0.00007214,0.00001167,0.00001846,-0.00000525,-0.00004494,
 -0.00001717,-0.00001175,0.00000956,0.00001196,0.00001394,0.00001214,0.
 00000629,0.00000323,-0.00001042,-0.00000007,0.00003421,-0.00000002,-0.
 00000018,0.00004422,-0.00000025,0.00218041,-0.00186271,-0.00000389,-0.
 00001085,-0.00087434,0.00001175,-0.00000691,0.00007245,-0.00029561,-0.
 00000701,-0.00201089,0.00003656,0.00000768,0.00012714,-0.00000984,-0.0
 0000871,0.00000546,0.00001247,0.00001873,0.00000571,0.00001043,-0.0000
 5781,0.00000953,-0.00002583,-0.00000017,-0.00001633,0.00003577,-0.0000
 2760,0.00004826,-0.00011391,0.00002254,-0.00000623,-0.00019997,0.00003
 426,0.00047763,-0.00000030,-0.00018660,0.00059756,0.00000760,0.0000020
 2,0.00180143,-0.00039188,-0.00000202,0.00000185,0.22410586,0.00130064,
 -0.17064141,0.00782967,0.00004237,0.00001800,-0.00126803,-0.00000491,-
 0.00046967,-0.00019514,-0.00003934,0.00046607,-0.00051757,0.00000034,0
 .00141471,-0.00000466,-0.00000274,-0.00046780,0.00000264,0.00018590,0.
 00059643,-0.00004634,-0.00000279,0.00049121,0.00019844,0.00000107,-0.0
 0052417,0.00000009,0.00000261,-0.00086444,0.00002008,0.00001376,0.0000
 6242,0.00002321,0.00001729,0.00008804,-0.00000623,0.00002505,-0.000012
 37,0.00001194,0.00004012,-0.00000327,-0.00001030,-0.00001908,0.0000155
 0,0.00000820,-0.00000071,-0.00000241,0.00003530,-0.00000835,0.00000282
 ,-0.00001442,0.00000028,0.00000706,-0.00000537,-0.00000002,-0.00022423
 ,0.00005175,0.00000025,-0.00012102,-0.19819043,-0.00114913,0.16375311,
 0.00005805,0.00003453,-0.00001663,0.00001951,0.00000933,-0.00001883,0.
 00000282,0.00001107,-0.00001898,-0.00000308,-0.00001164,-0.00003740,-0
 .00000682,0.00001397,0.00000578,-0.00000229,-0.00000724,-0.00000246,0.
 00000093,-0.00002122,0.00000352,-0.00001826,-0.00000267,-0.00001427,-0
 .00001482,-0.00000585,0.00000558,-0.00002143,0.00001243,0.00000239,-0.
 00023634,-0.00004064,0.00000762,-0.00001773,0.00000788,0.00010730,-0.0
 0024221,0.00000002,0.00008589,0.00098402,0.00000527,-0.00150849,-0.355
 64191,-0.00209121,-0.16624876,0.00219177,0.00001384,-0.00064486,0.0004
 3859,-0.00000377,0.00058207,-0.00023642,0.00004138,0.00000643,-0.00010
 889,-0.00000305,0.00017105,-0.00048429,0.00000029,0.00123624,-0.000019
 96,-0.00000255,0.00011611,-0.00034339,-0.00000308,-0.00095858,-0.00005
 909,0.00000037,0.00004483,0.00006372,-0.00004411,-0.00002549,0.0000393
 8,-0.00003204,-0.00001231,-0.00001341,0.00000047,0.00000614,-0.0000153
 1,0.00001187,-0.00002113,0.00003392,-0.00000175,-0.00001424,0.00000444
 ,0.00000255,0.00001553,-0.00001974,-0.00000529,0.00003196,-0.00009696,
 0.00005283,0.00002264,0.00000371,-0.00001656,-0.00005414,0.00002379,-0
 .00000018,0.00005175,0.00001711,-0.00000007,0.00000537,-0.02017073,-0.
 00010500,-0.03110205,0.37389131,-0.00000076,-0.00023657,-0.00103355,0.
 00001768,0.00001445,0.00000201,0.00000864,0.00002324,0.00000142,-0.000
 00636,-0.00000273,0.00001144,0.00001981,-0.00003936,-0.00005568,0.0000
 1846,-0.00000525,0.00004494,-0.00006730,-0.00007214,-0.00001167,-0.000
 01717,-0.00001175,-0.00000956,0.00000629,0.00000323,0.00001042,0.00001
 196,0.00001394,-0.00001214,0.00024432,0.00002390,0.00057616,-0.0000160
 9,-0.00042071,0.00079941,-0.00000271,-0.00014280,-0.00000356,0.0000023
 6,-0.00069968,0.00000513,-0.00208973,0.00469676,-0.00096530,0.00001456
 ,0.00056963,-0.00000316,-0.00000494,0.00093135,0.00000320,-0.00025043,
 0.00002482,-0.00058462,0.00000013,0.00000959,0.00000221,0.00001446,-0.
 00004236,-0.00000051,0.00002883,-0.00042058,-0.00080413,-0.00000170,0.
 00007376,-0.00000022,0.00000041,-0.00012134,0.00000024,-0.00002966,-0.
 00024478,0.00104061,-0.00002152,0.00001875,-0.00004979,0.00004125,0.00
 002803,0.00003045,-0.00000307,-0.00002195,0.00001588,-0.00002116,-0.00
 010373,0.00000322,0.00001376,-0.00000274,-0.00003236,-0.00003576,-0.00
 003635,0.00005278,0.00004591,0.00006332,0.00002180,0.00000505,-0.00000
 226,-0.00002384,-0.00000018,0.00004422,0.00000025,-0.00000007,0.000034
 21,0.00000002,-0.00010510,-0.00208339,-0.00018018,0.00217983,-0.001862
 72,-0.00000009,-0.00000261,-0.00086444,-0.00002321,-0.00001729,0.00008
 804,0.00000466,0.00000274,-0.00046780,-0.00002008,-0.00001376,0.000062
 42,0.00000623,-0.00002505,-0.00001237,0.00001030,0.00001908,0.00001550
 ,-0.00001194,-0.00004012,-0.00000327,-0.00000820,0.00000071,-0.0000024
 1,0.00001442,-0.00000028,0.00000706,-0.00003530,0.00000835,0.00000282,
 0.00019514,0.00003934,0.00046607,-0.00000264,-0.00018590,0.00059643,0.
 00039188,0.00000202,0.00000185,-0.00000760,-0.00000202,0.00180143,-0.2
 2410586,-0.00130017,-0.17064141,-0.00782967,-0.00004235,0.00001800,0.0
 0126803,0.00000491,-0.00046967,0.00019997,-0.00003426,0.00047762,0.000
 04634,0.00000279,0.00049121,0.00029561,0.00000701,-0.00201089,0.000000
 30,0.00018660,0.00059756,0.00051757,-0.00000034,0.00141471,-0.00019844
 ,-0.00000107,-0.00052417,0.00000389,0.00001085,-0.00087433,-0.00003656
 ,-0.00000768,0.00012714,-0.00001175,0.00000691,0.00007245,0.00000984,0
 .00000871,0.00000546,-0.00001043,0.00005781,0.00000953,-0.00001247,-0.
 00001873,0.00000571,0.00002583,0.00000017,-0.00001633,0.00011391,-0.00
 002254,-0.00000623,-0.00003577,0.00002760,0.00004826,-0.00005175,-0.00
 000025,-0.00012102,0.00000537,0.00000002,-0.00022423,0.03110205,0.0001
 8016,0.00617619,0.19819043,0.00114867,0.16375310\\-0.00000021,-0.00000
 005,-0.00000007,0.00000005,0.00000002,0.,0.00000006,0.00000014,-0.0000
 0005,0.00000007,0.00000004,0.,-0.00000006,-0.00000004,0.,-0.00000007,0
 .,-0.00000001,-0.00000008,0.,0.00000003,-0.00000007,0.,0.,-0.00000002,
 0.00000007,-0.00000004,-0.00000002,0.00000008,0.00000005,0.00000001,0.
 00000002,0.00000012,0.00000001,0.00000001,-0.00000005,-0.00000002,0.,-
 0.00000008,0.00000002,0.00000002,-0.00000008,0.,0.00000003,0.00000004,
 0.,0.,0.00000005,0.,0.,-0.00000006,-0.00000001,0.,0.00000005,-0.000000
 03,-0.00000002,0.00000012,-0.00000006,-0.00000014,-0.00000005,-0.00000
 001,-0.00000004,-0.00000012,0.00000003,0.00000001,0.00000012,0.,-0.000
 00003,-0.00000004,0.00000021,0.00000005,0.00000007,-0.00000007,-0.0000
 0004,0.,-0.00000005,-0.00000002,0.,0.00000006,0.00000004,0.,0.00000007
 ,0.,0.00000002,0.00000007,0.,-0.00000003,0.00000007,0.,0.,0.00000002,-
 0.00000008,0.00000005,0.00000002,-0.00000007,-0.00000004,-0.00000001,0
 .,0.00000003,0.00000001,0.00000002,0.00000003,-0.00000002,0.,-0.000000
 02,0.00000002,-0.00000002,-0.00000002\\\@


 IF THE FACTS DO NOT CONFORM TO THE THEORY, THEY MUST BE DISPOSED OF.
 Job cpu time:  0 days  2 hours 18 minutes 59.9 seconds.
 File lengths (MBytes):  RWF=    347 Int=      0 D2E=      0 Chk=      6 Scr=      1
 Normal termination of Gaussian 09 at Sun Nov 24 23:32:56 2013.
