
                                 *****************
                                 * O   R   C   A *
                                 *****************

           --- An Ab Initio, DFT and Semiempirical electronic structure package ---

                  #######################################################
                  #                        -***-                        #
                  #  Department of molecular theory and spectroscopy    #
                  #              Directorship: Frank Neese              #
                  # Max Planck Institute for Chemical Energy Conversion #
                  #                  D-45470 Muelheim/Ruhr              #
                  #                       Germany                       #
                  #                                                     #
                  #                  All rights reserved                #
                  #                        -***-                        #
                  #######################################################


                         Program Version 3.0.1 -  RELEASE  -


 With contributions from (in alphabetic order):
   Ute Becker             : Parallelization
   Dmytro Bykov           : SCF Hessian
   Dmitry Ganyushin       : Spin-Orbit,Spin-Spin,Magnetic field MRCI
   Andreas Hansen         : Spin unrestricted coupled pair/coupled cluster methods
   Dimitrios Liakos       : Extrapolation schemes; parallel MDCI
   Robert Izsak           : Overlap fitted RIJCOSX, COSX-SCS-MP3
   Christian Kollmar      : KDIIS, OOCD, Brueckner-CCSD(T), CCSD density
   Simone Kossmann        : Meta GGA functionals, TD-DFT gradient, OOMP2, MP2 Hessian
   Taras Petrenko         : DFT Hessian,TD-DFT gradient, ASA and ECA modules, normal mode analysis, Resonance Raman, ABS, FL, XAS/XES, NRVS
   Christoph Reimann      : Effective Core Potentials
   Michael Roemelt        : Restricted open shell CIS
   Christoph Riplinger    : Improved optimizer, TS searches, QM/MM, DLPNO-CCSD
   Barbara Sandhoefer     : DKH picture change effects
   Igor Schapiro          : Molecular dynamics
   Kantharuban Sivalingam : CASSCF convergence, NEVPT2
   Boris Wezisla          : Elementary symmetry handling
   Frank Wennmohs         : Technical directorship


 We gratefully acknowledge several colleagues who have allowed us to
 interface, adapt or use parts of their codes:
   Stefan Grimme, W. Hujo, H. Kruse, T. Risthaus : VdW corrections, initial TS optimization,
                                                   DFT functionals, gCP
   Ed Valeev                                     : LibInt (2-el integral package), F12 methods
   Garnet Chan, S. Sharma, R. Olivares           : DMRG
   Ulf Ekstrom                                   : XCFun DFT Library
   Mihaly Kallay                                 : mrcc  (arbitrary order and MRCC methods)
   Andreas Klamt, Michael Diedenhofen            : otool_cosmo (COSMO solvation model)
   Frank Weinhold                                : gennbo (NPA and NBO analysis)


 Your calculation uses the libint2 library for the computation of 2-el integrals
 For citations please refer to: http://libint.valeyev.net

 This ORCA versions uses:
   CBLAS   interface :  Fast vector & matrix operations
   LAPACKE interface :  Fast linear algebra routines
   SCALAPACK package :  Parallel linear algebra routines


WARNING: Replacing TZV by TZV-ZORA
Your calculation utilizes the basis: TZV-ZORA
Cite in your paper:
H - Ba, Hf - Hg: D. A. Pantazis, X. Y. Chen, C. R. Landis and F. Neese, J. Chem. Theory Comput. 4, 908 (2008)
La-Lu          : D. A. Pantazis and F. Neese, J. Chem. Theory Comput. 5, 2229 (2009)
Ac-Lr          : D. A. Pantazis and F. Neese, J. Chem. Theory Comput. 7, 677 (2011)
Tl-Rn          : D. A. Pantazis and F. Neese, Theor. Chem. Acc. 131, 1292 (2012)

Your calculation utilizes pol. fcns from the TurboMole library
Cite in your paper:
The Ahlrichs (2df,2pd) polarization functions were obtained from the TurboMole
basis set library under ftp.chemie.uni-karlsruhe.de/pub/basen

================================================================================
                                        WARNINGS
                       Please study these warnings very carefully!
================================================================================
Now building the actual basis set

WARNING: In scalar relativistic gradient runs we need the one-center approximation
  ===> : %rel OneCenter is turned on

WARNING: The environment variable RSH_COMMAND is not set!
  ===> : All Displacements for the Numerical Hessian calculation
         will be started on localhost

WARNING: Geometry Optimization
  ===> : Switching off AutoStart
         For restart on a previous wavefunction, please use MOREAD


INFO   : the flag for use of LIBINT has been found!

================================================================================
                                       INPUT FILE
================================================================================
NAME = rhac_bp86.inp
|  1> ! BP86 ZORA TZVPP TZVPP/J TightSCF RI DIIS Grid4 Opt NoFinalGrid
|  2> ! NumFreq
|  3> 
|  4> %output
|  5>   PrintLevel Mini
|  6>   Print [ P_Cartesian ] 0
|  7>   Print [ P_Internal ] 0
|  8>   Print [ P_Basis ] 0
|  9>   Print [ P_Loewdin ] 0
| 10>   Print [ P_Mayer ] 0
| 11>   Print [ P_OrbEn ] 0
| 12>   end
| 13> 
| 14> %freq  
| 15>    CentralDiff true
| 16>    Increment  0.001
| 17>    end
| 18> 
| 19> %pal
| 20>    nprocs 8
| 21>    end
| 22> 
| 23> %elprop  Polar 1
| 24>    end
| 25> 
| 26> * xyz   0   1
| 27>   C      -0.005731      2.627160      0.000414
| 28>   C      -0.057648      4.138751      0.000703
| 29>   C       2.628794      0.006177     -0.000546
| 30>   C       4.139970      0.059117     -0.000978
| 31>   H      -1.109286      4.459940     -0.000510
| 32>   H       0.419552      4.537645      0.902330
| 33>   H       0.421618      4.538024     -0.899673
| 34>   H       4.460516      1.110962     -0.000845
| 35>   H       4.540064     -0.419468      0.899387
| 36>   H       4.539621     -0.419215     -0.901652
| 37>   O       0.003643      2.053245     -1.141040
| 38>   O       0.003809      2.052855      1.141689
| 39>   O       2.053221     -0.003319     -1.141469
| 40>   O      -2.053671      0.003625     -1.140577
| 41>   O       0.001128      0.000706     -3.563684
| 42>   Rh     -0.000143      0.000179     -1.200507
| 43>   Rh      0.000141     -0.000187      1.200507
| 44>   O      -0.003809     -2.052862     -1.141689
| 45>   O       2.053669     -0.003633      1.140577
| 46>   C      -2.628796     -0.006185      0.000547
| 47>   O      -0.003646     -2.053254      1.141040
| 48>   O      -2.053223      0.003312      1.141470
| 49>   O      -0.001129     -0.000717      3.563684
| 50>   C       0.005731     -2.627168     -0.000414
| 51>   C      -4.139972     -0.059125      0.000979
| 52>   C       0.057652     -4.138759     -0.000703
| 53>   H       1.109291     -4.459943      0.000512
| 54>   H      -0.419545     -4.537653     -0.902331
| 55>   H      -0.421614     -4.538033      0.899672
| 56>   H      -4.460517     -1.110970      0.000842
| 57>   H      -4.540066      0.419463     -0.899385
| 58>   H      -4.539623      0.419204      0.901654
| 59>   H      -0.784579     -0.001641      4.131796
| 60>   H       0.781141      0.006355      4.133368
| 61>   H       0.784577      0.001702     -4.131797
| 62>   H      -0.781142     -0.006291     -4.133368
| 63> *
| 64> 
| 65> 
| 66>                          ****END OF INPUT****
================================================================================

                       *****************************
                       * Geometry Optimization Run *
                       *****************************

Geometry optimization settings:
Update method            Update   .... BFGS
Choice of coordinates    CoordSys .... Redundant Internals
Initial Hessian          InHess   .... Almoef's Model

Convergence Tolerances:
Energy Change            TolE     ....  5.0000e-06 Eh
Max. Gradient            TolMAXG  ....  3.0000e-04 Eh/bohr
RMS Gradient             TolRMSG  ....  1.0000e-04 Eh/bohr
Max. Displacement        TolMAXD  ....  4.0000e-03 bohr
RMS Displacement         TolRMSD  ....  2.0000e-03 bohr

------------------------------------------------------------------------------
                        ORCA OPTIMIZATION COORDINATE SETUP
------------------------------------------------------------------------------

The optimization will be done in new redundant internal coordinates
Making redundant internal coordinates   ...  (new redundants) done
Evaluating the initial hessian          ...  (Almloef) done
Evaluating the coordinates              ...  done
Calculating the B-matrix                .... done
Calculating the G-matrix                .... done
Diagonalizing the G-matrix              .... done
Small eigenvalue found = 1.945e-02
The first mode is                       ....  139
The number of degrees of freedom        ....  102

    -----------------------------------------------------------------
                    Redundant Internal Coordinates


    -----------------------------------------------------------------
         Definition                    Initial Value    Approx d2E/dq
    -----------------------------------------------------------------
      1. B(C   1,C   0)                  1.5125         0.398406   
      2. B(C   3,C   2)                  1.5121         0.398961   
      3. B(H   4,C   1)                  1.0996         0.347630   
      4. B(H   5,C   1)                  1.0953         0.353106   
      5. B(H   6,C   1)                  1.0954         0.353092   
      6. B(H   7,C   3)                  1.0996         0.347617   
      7. B(H   8,C   3)                  1.0953         0.353101   
      8. B(H   9,C   3)                  1.0953         0.353125   
      9. B(O  10,C   0)                  1.2776         0.845525   
     10. B(O  11,C   0)                  1.2777         0.845474   
     11. B(O  12,C   2)                  1.2779         0.844679   
     12. B(Rh 15,O  13)                  2.0544         0.493156   
     13. B(Rh 15,O  12)                  2.0542         0.493500   
     14. B(Rh 15,O  14)                  2.3632         0.158620   
     15. B(Rh 15,O  10)                  2.0539         0.494017   
     16. B(Rh 16,Rh 15)                  2.4010         1.559480   
     17. B(Rh 16,O  11)                  2.0539         0.494094   
     18. B(O  17,Rh 15)                  2.0539         0.494096   
     19. B(O  18,Rh 16)                  2.0544         0.493156   
     20. B(O  18,C   2)                  1.2779         0.844744   
     21. B(C  19,O  13)                  1.2779         0.844741   
     22. B(O  20,Rh 16)                  2.0539         0.494015   
     23. B(O  21,C  19)                  1.2779         0.844679   
     24. B(O  21,Rh 16)                  2.0542         0.493500   
     25. B(O  22,Rh 16)                  2.3632         0.158620   
     26. B(C  23,O  20)                  1.2776         0.845526   
     27. B(C  23,O  17)                  1.2777         0.845472   
     28. B(C  24,C  19)                  1.5121         0.398961   
     29. B(C  25,C  23)                  1.5125         0.398406   
     30. B(H  26,C  25)                  1.0996         0.347630   
     31. B(H  27,C  25)                  1.0953         0.353107   
     32. B(H  28,C  25)                  1.0953         0.353092   
     33. B(H  29,C  24)                  1.0996         0.347618   
     34. B(H  30,C  24)                  1.0953         0.353100   
     35. B(H  31,C  24)                  1.0953         0.353125   
     36. B(H  32,O  22)                  0.9678         0.505356   
     37. B(H  33,O  22)                  0.9677         0.505365   
     38. B(H  34,O  14)                  0.9678         0.505356   
     39. B(H  35,O  14)                  0.9677         0.505366   
     40. A(C   1,C   0,O  10)          116.7023         0.421153   
     41. A(O  10,C   0,O  11)          126.5887         0.479580   
     42. A(C   1,C   0,O  11)          116.6999         0.421148   
     43. A(H   4,C   1,H   6)          108.1245         0.288347   
     44. A(H   4,C   1,H   5)          108.1314         0.288349   
     45. A(C   0,C   1,H   4)          108.9507         0.325874   
     46. A(C   0,C   1,H   5)          110.4361         0.326714   
     47. A(C   0,C   1,H   6)          110.4338         0.326712   
     48. A(H   5,C   1,H   6)          110.6866         0.289053   
     49. A(C   3,C   2,O  12)          116.7518         0.421182   
     50. A(O  12,C   2,O  18)          126.4754         0.479416   
     51. A(C   3,C   2,O  18)          116.7631         0.421188   
     52. A(C   2,C   3,H   9)          110.4623         0.326792   
     53. A(C   2,C   3,H   8)          110.4575         0.326788   
     54. A(H   7,C   3,H   9)          108.1480         0.288350   
     55. A(C   2,C   3,H   7)          108.9548         0.325947   
     56. A(H   7,C   3,H   8)          108.1419         0.288347   
     57. A(H   8,C   3,H   9)          110.5995         0.289057   
     58. A(C   0,O  10,Rh 15)          118.3503         0.489402   
     59. A(C   0,O  11,Rh 16)          118.3514         0.489411   
     60. A(C   2,O  12,Rh 15)          118.4152         0.489216   
     61. A(Rh 15,O  13,C  19)          118.4179         0.489160   
     62. A(Rh 15,O  14,H  35)          126.0318         0.326516   
     63. A(H  34,O  14,H  35)          107.9887         0.318852   
     64. A(Rh 15,O  14,H  34)          125.9783         0.326515   
     65. A(O  13,Rh 15,O  17)           89.9460         0.499318   
     66. A(O  12,Rh 15,O  17)           89.9575         0.499382   
     67. A(O  13,Rh 15,Rh 16)           88.3352         0.684845   
     68. A(O  12,Rh 15,Rh 16)           88.3463         0.684939   
     69. A(O  14,Rh 15,O  17)           91.6539         0.406410   
     70. A(O  10,Rh 15,Rh 16)           88.3496         0.685080   
     71. A(O  13,Rh 15,O  14)           91.7024         0.406273   
     72. A(O  12,Rh 15,O  14)           91.6161         0.406323   
     73. A(O  10,Rh 15,O  14)           91.6463         0.406398   
     74. A(O  10,Rh 15,O  13)           89.9611         0.499303   
     75. A(O  10,Rh 15,O  12)           89.9443         0.499367   
     76. A(Rh 16,Rh 15,O  17)           88.3503         0.685102   
     77. A(O  11,Rh 16,Rh 15)           88.3503         0.685102   
     78. A(O  11,Rh 16,O  18)           89.9459         0.499317   
     79. A(O  21,Rh 16,O  22)           91.6161         0.406323   
     80. A(O  20,Rh 16,O  22)           91.6462         0.406398   
     81. A(O  18,Rh 16,O  22)           91.7024         0.406273   
     82. A(O  11,Rh 16,O  22)           91.6539         0.406410   
     83. A(O  20,Rh 16,O  21)           89.9443         0.499367   
     84. A(Rh 15,Rh 16,O  21)           88.3463         0.684939   
     85. A(O  11,Rh 16,O  21)           89.9576         0.499382   
     86. A(O  18,Rh 16,O  20)           89.9611         0.499302   
     87. A(Rh 15,Rh 16,O  20)           88.3496         0.685080   
     88. A(Rh 15,Rh 16,O  18)           88.3352         0.684845   
     89. A(Rh 15,O  17,C  23)          118.3514         0.489411   
     90. A(C   2,O  18,Rh 16)          118.4179         0.489160   
     91. A(O  21,C  19,C  24)          116.7518         0.421182   
     92. A(O  13,C  19,C  24)          116.7631         0.421188   
     93. A(O  13,C  19,O  21)          126.4754         0.479415   
     94. A(Rh 16,O  20,C  23)          118.3502         0.489402   
     95. A(Rh 16,O  21,C  19)          118.4152         0.489216   
     96. A(H  32,O  22,H  33)          107.9887         0.318852   
     97. A(Rh 16,O  22,H  33)          126.0318         0.326515   
     98. A(Rh 16,O  22,H  32)          125.9782         0.326514   
     99. A(O  20,C  23,C  25)          116.7022         0.421153   
    100. A(O  17,C  23,C  25)          116.6999         0.421148   
    101. A(O  17,C  23,O  20)          126.5887         0.479580   
    102. A(C  19,C  24,H  29)          108.9547         0.325947   
    103. A(H  30,C  24,H  31)          110.5995         0.289057   
    104. A(H  29,C  24,H  31)          108.1480         0.288350   
    105. A(C  19,C  24,H  31)          110.4624         0.326792   
    106. A(H  29,C  24,H  30)          108.1419         0.288347   
    107. A(C  19,C  24,H  30)          110.4575         0.326788   
    108. A(H  27,C  25,H  28)          110.6867         0.289054   
    109. A(H  26,C  25,H  28)          108.1245         0.288347   
    110. A(C  23,C  25,H  28)          110.4338         0.326712   
    111. A(H  26,C  25,H  27)          108.1315         0.288349   
    112. A(C  23,C  25,H  27)          110.4360         0.326714   
    113. A(C  23,C  25,H  26)          108.9506         0.325874   
    114. D(H   4,C   1,C   0,O  10)     89.4108         0.011784   
    115. D(H   5,C   1,C   0,O  11)     29.0653         0.011784   
    116. D(H   6,C   1,C   0,O  11)    151.8253         0.011784   
    117. D(H   6,C   1,C   0,O  10)    -29.2043         0.011784   
    118. D(H   5,C   1,C   0,O  10)   -151.9643         0.011784   
    119. D(H   4,C   1,C   0,O  11)    -89.5596         0.011784   
    120. D(H   9,C   3,C   2,O  12)    -29.1856         0.011815   
    121. D(H   9,C   3,C   2,O  18)    151.8685         0.011815   
    122. D(H   8,C   3,C   2,O  18)     29.1847         0.011815   
    123. D(H   7,C   3,C   2,O  18)    -89.4682         0.011815   
    124. D(H   8,C   3,C   2,O  12)   -151.8694         0.011815   
    125. D(H   7,C   3,C   2,O  12)     89.4777         0.011815   
    126. D(Rh 15,O  10,C   0,C   1)   -177.6627         0.055858   
    127. D(Rh 15,O  10,C   0,O  11)      1.1918         0.055858   
    128. D(Rh 16,O  11,C   0,C   1)    177.6661         0.055851   
    129. D(Rh 16,O  11,C   0,O  10)     -1.1883         0.055851   
    130. D(Rh 15,O  12,C   2,O  18)      1.2031         0.055732   
    131. D(Rh 15,O  12,C   2,C   3)   -177.6264         0.055732   
    132. D(C  19,O  13,O  12,C   2)     -1.0671         0.001500   
    133. D(Rh 16,Rh 15,O  13,C  19)     -0.5406         0.002695   
    134. D(O  14,Rh 15,O  13,C  19)    179.4635         0.002695   
    135. D(O  10,Rh 15,O  12,C   2)     87.8077         0.002697   
    136. D(O  14,Rh 15,O  12,C   2)    179.4531         0.002697   
    137. D(O  17,Rh 15,O  12,C   2)    -88.8936         0.002697   
    138. D(Rh 16,Rh 15,O  12,C   2)     -0.5428         0.002697   
    139. D(Rh 16,Rh 15,O  10,C   0)     -0.5384         0.002700   
    140. D(O  14,Rh 15,O  10,C   0)    179.4992         0.002700   
    141. D(O  10,Rh 15,O  13,C  19)    -88.8906         0.002695   
    142. D(O  17,Rh 15,O  13,C  19)     87.8105         0.002695   
    143. D(O  13,Rh 15,O  10,C   0)     87.7972         0.002700   
    144. D(O  12,Rh 15,O  10,C   0)    -88.8856         0.002700   
    145. D(O  17,Rh 15,O  14,H  35)     89.3770         0.001638   
    146. D(O  13,Rh 15,O  14,H  35)     -0.6181         0.001638   
    147. D(O  13,Rh 15,O  14,H  34)    179.8399         0.001638   
    148. D(O  12,Rh 15,O  14,H  35)    179.3812         0.001638   
    149. D(O  12,Rh 15,O  14,H  34)     -0.1608         0.001638   
    150. D(O  17,Rh 15,O  14,H  34)    -90.1650         0.001638   
    151. D(O  10,Rh 15,O  14,H  35)    -90.6281         0.001638   
    152. D(O  10,Rh 15,O  14,H  34)     89.8299         0.001638   
    153. D(O  20,Rh 16,Rh 15,O  13)     89.9909         0.002990   
    154. D(O  20,Rh 16,Rh 15,O  10)    180.0000         0.002990   
    155. D(O  18,Rh 16,Rh 15,O  13)    180.0000         0.002990   
    156. D(O  18,Rh 16,Rh 15,O  12)      0.0010         0.002990   
    157. D(O  18,Rh 16,Rh 15,O  10)    -89.9909         0.002990   
    158. D(O  20,Rh 16,Rh 15,O  12)    -90.0081         0.002990   
    159. D(O  11,Rh 16,Rh 15,O  10)      0.0029         0.002990   
    160. D(O  21,Rh 16,O  14,H  35)     -0.6175         0.001500   
    161. D(O  21,Rh 16,O  14,H  34)    179.8376         0.001500   
    162. D(O  11,Rh 16,Rh 15,O  13)    -90.0062         0.002990   
    163. D(O  20,Rh 16,O  14,H  35)     89.3738         0.001500   
    164. D(O  20,Rh 16,O  14,H  34)    -90.1711         0.001500   
    165. D(O  11,Rh 16,Rh 15,O  12)     89.9948         0.002990   
    166. D(O  18,Rh 16,O  14,H  35)    179.3833         0.001500   
    167. D(O  18,Rh 16,O  14,H  34)     -0.1615         0.001500   
    168. D(O  11,Rh 16,O  14,H  35)    -90.6222         0.001500   
    169. D(O  11,Rh 16,O  14,H  34)     89.8329         0.001500   
    170. D(O  22,Rh 16,O  11,C   0)   -179.4308         0.002700   
    171. D(O  18,Rh 16,Rh 15,O  17)     90.0061         0.002990   
    172. D(O  21,Rh 16,O  11,C   0)    -87.8153         0.002700   
    173. D(O  18,Rh 16,O  11,C   0)     88.8676         0.002700   
    174. D(Rh 15,Rh 16,O  11,C   0)      0.5316         0.002700   
    175. D(O  20,Rh 16,Rh 15,O  17)     -0.0030         0.002990   
    176. D(O  11,Rh 16,Rh 15,O  17)    179.9999         0.002990   
    177. D(O  21,Rh 16,Rh 15,O  17)    -89.9949         0.002990   
    178. D(O  21,Rh 16,Rh 15,O  13)     -0.0010         0.002990   
    179. D(O  21,Rh 16,Rh 15,O  12)    180.0000         0.002990   
    180. D(O  21,Rh 16,Rh 15,O  10)     90.0081         0.002990   
    181. D(C  23,O  17,Rh 15,Rh 16)     -0.5316         0.002700   
    182. D(C  23,O  17,Rh 15,O  14)    179.4308         0.002700   
    183. D(C  23,O  17,Rh 15,O  13)    -88.8676         0.002700   
    184. D(C  23,O  17,Rh 15,O  12)     87.8153         0.002700   
    185. D(C  23,O  17,O  10,C   0)     -1.0540         0.001500   
    186. D(C   2,O  18,Rh 16,O  22)   -179.4636         0.002695   
    187. D(C   2,O  18,Rh 16,O  20)     88.8906         0.002695   
    188. D(C   2,O  18,Rh 16,Rh 15)      0.5406         0.002695   
    189. D(C   2,O  18,Rh 16,O  11)    -87.8105         0.002695   
    190. D(Rh 16,O  18,C   2,O  12)     -1.2020         0.055742   
    191. D(Rh 16,O  18,C   2,C   3)    177.6274         0.055742   
    192. D(C  24,C  19,O  13,Rh 15)   -177.6274         0.055742   
    193. D(O  21,C  19,O  13,Rh 15)      1.2020         0.055742   
    194. D(C  23,O  20,Rh 16,O  22)   -179.4990         0.002700   
    195. D(C  23,O  20,Rh 16,O  21)     88.8858         0.002700   
    196. D(C  23,O  20,Rh 16,O  18)    -87.7970         0.002700   
    197. D(C  23,O  20,Rh 16,Rh 15)      0.5386         0.002700   
    198. D(C  23,O  20,O  11,C   0)      1.0542         0.001500   
    199. D(Rh 16,O  21,C  19,C  24)    177.6264         0.055732   
    200. D(Rh 16,O  21,C  19,O  13)     -1.2032         0.055732   
    201. D(C  19,O  21,O  18,C   2)      1.0672         0.001500   
    202. D(C  19,O  21,Rh 16,O  22)   -179.4530         0.002697   
    203. D(C  19,O  21,Rh 16,O  20)    -87.8077         0.002697   
    204. D(C  19,O  21,Rh 16,Rh 15)      0.5429         0.002697   
    205. D(C  19,O  21,Rh 16,O  11)     88.8936         0.002697   
    206. D(H  33,O  22,Rh 16,O  21)   -179.3756         0.001638   
    207. D(H  33,O  22,Rh 16,O  18)      0.6236         0.001638   
    208. D(H  33,O  22,Rh 16,O  11)    -89.3714         0.001638   
    209. D(H  32,O  22,Rh 16,O  21)      0.1555         0.001638   
    210. D(H  32,O  22,Rh 16,O  18)   -179.8452         0.001638   
    211. D(H  32,O  22,Rh 16,O  11)     90.1598         0.001638   
    212. D(H  33,O  22,Rh 15,O  17)     90.6277         0.001500   
    213. D(H  33,O  22,Rh 15,O  13)   -179.3778         0.001500   
    214. D(H  33,O  22,Rh 15,O  12)      0.6230         0.001500   
    215. D(H  33,O  22,Rh 15,O  10)    -89.3683         0.001500   
    216. D(H  32,O  22,Rh 15,O  17)    -89.8383         0.001500   
    217. D(H  32,O  22,Rh 15,O  13)      0.1562         0.001500   
    218. D(H  32,O  22,Rh 15,O  12)   -179.8429         0.001500   
    219. D(H  32,O  22,Rh 16,O  20)    -89.8352         0.001638   
    220. D(H  32,O  22,Rh 15,O  10)     90.1658         0.001500   
    221. D(H  33,O  22,O  14,H  35)   -179.9945         0.001500   
    222. D(H  33,O  22,O  14,H  34)      0.4616         0.001500   
    223. D(H  33,O  22,Rh 16,O  20)     90.6337         0.001638   
    224. D(H  32,O  22,O  14,H  35)     -0.4614         0.001500   
    225. D(H  32,O  22,O  14,H  34)    179.9947         0.001500   
    226. D(C  25,C  23,O  20,Rh 16)    177.6624         0.055859   
    227. D(O  17,C  23,O  20,Rh 16)     -1.1920         0.055859   
    228. D(C  25,C  23,O  17,Rh 15)   -177.6660         0.055851   
    229. D(O  20,C  23,O  17,Rh 15)      1.1884         0.055851   
    230. D(H  31,C  24,C  19,O  21)     29.1854         0.011815   
    231. D(H  31,C  24,C  19,O  13)   -151.8686         0.011815   
    232. D(H  30,C  24,C  19,O  21)    151.8692         0.011815   
    233. D(H  30,C  24,C  19,O  13)    -29.1849         0.011815   
    234. D(H  29,C  24,C  19,O  21)    -89.4779         0.011815   
    235. D(H  29,C  24,C  19,O  13)     89.4680         0.011815   
    236. D(H  28,C  25,C  23,O  17)   -151.8253         0.011784   
    237. D(H  27,C  25,C  23,O  20)    151.9644         0.011784   
    238. D(H  27,C  25,C  23,O  17)    -29.0652         0.011784   
    239. D(H  26,C  25,C  23,O  20)    -89.4107         0.011784   
    240. D(H  26,C  25,C  23,O  17)     89.5597         0.011784   
    241. D(H  28,C  25,C  23,O  20)     29.2043         0.011784   
    -----------------------------------------------------------------

Number of atoms                         .... 36
Number of degrees of freedom            .... 241

         *************************************************************
         *                GEOMETRY OPTIMIZATION CYCLE   1            *
         *************************************************************


           ************************************************************
           *        Program running with 8 parallel MPI-processes     *
           *              working on a common directory               *
           ************************************************************
------------------------------------------------------------------------------
                           ORCA GTO INTEGRAL CALCULATION
                           -- RI-GTO INTEGRALS CHOSEN --
------------------------------------------------------------------------------

                         BASIS SET STATISTICS AND STARTUP INFO

Gaussian basis set:
 # of primitive gaussian shells          ...  574
 # of primitive gaussian functions       ... 1310
 # of contracted shells                  ...  366
 # of contracted basis functions         ...  942
 Highest angular momentum                ...    3
 Maximum contraction depth               ...    8
Auxiliary gaussian basis set:
 # of primitive gaussian shells          ...  648
 # of primitive gaussian functions       ... 1780
 # of contracted shells                  ...  438
 # of contracted aux-basis functions     ... 1322
 Highest angular momentum                ...    4
 Maximum contraction depth               ...    7
Ratio of auxiliary to basis functions    ...  1.40
Integral package used                  ... LIBINT
 One Electron integrals                  ... done
 Ordering auxiliary basis shells         ... done
 Integral threshhold             Thresh  ...  2.500e-11
 Primitive cut-off               TCut    ...  2.500e-12
 Pre-screening matrix                    ... done
 Shell pair data                         ... 
 Ordering of the shell pairs             ... done (   0.012 sec) 42022 of 67161 pairs
 Determination of significant pairs      ... done (   0.000 sec)
 Creation of shell pair data             ... done (   0.013 sec)
 Storage of shell pair data              ... done (   0.040 sec)
 Shell pair data done in (   0.065 sec)
 Computing two index integrals           ... done
 Cholesky decomposition of the V-matrix  ... done


Timings:
 Total evaluation time                   ...   2.738 sec (  0.046 min)
 One electron matrix time                ...   0.673 sec (  0.011 min) = 24.6%
 Schwartz matrix evaluation time         ...   1.637 sec (  0.027 min) = 59.8%
 Two index repulsion integral time       ...   0.097 sec (  0.002 min) =  3.5%
 Cholesky decomposition of V             ...   0.236 sec (  0.004 min) =  8.6%
 Three index repulsion integral time     ...   0.000 sec (  0.000 min) =  0.0%

           ************************************************************
           *              Shut down parallel processing               *
           ************************************************************
------------------------------------------------------------------------------
                          ORCA RELATIVISTIC HAMILTONIAN
------------------------------------------------------------------------------

Relativistic Method            ... ZORA(MP)
Treatment of potential         ... Van Wuellen
Nucleus model                  ... Point Nucleus
Speed of light used            ... 137.03598950000000


            *************************************************
            *         ZERO ORDER REGULAR APPROXIMATION      *
            *                     ZORA(MP)                  *
            *            Programmed by FN according to      *
            *                   C. van Wuellen              *
            *       J. Chem. Phys. (1998) vol 109, 392-399  *
            *************************************************

Terms included in model potential: +V(e,N)+V(C)+V(Xa)+V(VWN-V)
Basis function cutoff value   ... 1.000000e-11
Loading the fitted atomic densities (ZORA)   ... done
Calculating the cutoffs                      ... done
Number of fit functions                      ... 336
One center approximation for ZORA is active
Finding unique atoms                  ... 4 atom types
AtomType   0 (C ) Member=  0 NMembers=   8, NRad=2000 NumBF= 32
             ... doing numerical integration
             ... adding submatrices to 8 actual atoms
AtomType   1 (H ) Member=  4 NMembers=  16, NRad=2000 NumBF= 14
             ... doing numerical integration
             ... adding submatrices to 16 actual atoms
AtomType   2 (O ) Member= 10 NMembers=  10, NRad=2000 NumBF= 32
             ... doing numerical integration
             ... adding submatrices to 10 actual atoms
AtomType   3 (Rh) Member= 15 NMembers=   2, NRad=2000 NumBF= 71
             ... doing numerical integration
             ... adding submatrices to 2 actual atoms
             ... done with one-center part


           ************************************************************
           *        Program running with 8 parallel MPI-processes     *
           *              working on a common directory               *
           ************************************************************
-------------------------------------------------------------------------------
                                 ORCA SCF
-------------------------------------------------------------------------------

------------
SCF SETTINGS
------------
Hamiltonian:
 Density Functional     Method          .... DFT(GTOs)
 Exchange Functional    Exchange        .... B88
   X-Alpha parameter    XAlpha          ....  0.666667
   Becke's b parameter  XBeta           ....  0.004200
 Correlation Functional Correlation     .... P86
 LDA part of GGA corr.  LDAOpt          .... PW91-LDA
 Gradients option       PostSCFGGA      .... off
 RI-approximation to the Coulomb term is turned on
   Number of auxiliary basis functions  .... 1322

Relativistic Settings:
 Scalar relativistic method             .... ZORA
 Speed of light used       Velit        ....       137.035989
Orbital energies will be scaled


General Settings:
 Integral files         IntName         .... rhac_bp86
 Hartree-Fock type      HFTyp           .... RHF
 Total Charge           Charge          ....    0
 Multiplicity           Mult            ....    1
 Number of Electrons    NEL             ....  234
 Basis Dimension        Dim             ....  942
 Nuclear Repulsion      ENuc            ....   4197.9505503380 Eh

Convergence Acceleration:
 DIIS                   CNVDIIS         .... on
   Start iteration      DIISMaxIt       ....    12
   Startup error        DIISStart       ....  0.200000
   # of expansion vecs  DIISMaxEq       ....     5
   Bias factor          DIISBfac        ....   1.050
   Max. coefficient     DIISMaxC        ....  10.000
 Newton-Raphson         CNVNR           .... off
 SOSCF                  CNVSOSCF        .... off
 Level Shifting         CNVShift        .... on
   Level shift para.    LevelShift      ....    0.2500
   Turn off err/grad.   ShiftErr        ....    0.0010
 Zerner damping         CNVZerner       .... off
 Static damping         CNVDamp         .... on
   Fraction old density DampFac         ....    0.7000
   Max. Damping (<1)    DampMax         ....    0.9800
   Min. Damping (>=0)   DampMin         ....    0.0000
   Turn off err/grad.   DampErr         ....    0.1000
 Fernandez-Rico         CNVRico         .... off

SCF Procedure:
 Maximum # iterations   MaxIter         ....   125
 SCF integral mode      SCFMode         .... Direct
   Integral package                     .... LIBINT
 Reset frequeny         DirectResetFreq ....    20
 Integral Threshold     Thresh          ....  2.500e-11 Eh
 Primitive CutOff       TCut            ....  2.500e-12 Eh

Convergence Tolerance:
 Convergence Check Mode ConvCheckMode   .... Total+1el-Energy
 Energy Change          TolE            ....  1.000e-08 Eh
 1-El. energy change                    ....  1.000e-05 Eh
 DIIS Error             TolErr          ....  5.000e-07


Diagonalization of the overlap matrix:
Smallest eigenvalue                        ... 1.929e-04
Time for diagonalization                   ...    0.771 sec
Threshold for overlap eigenvalues          ... 1.000e-08
Number of eigenvalues below threshold      ... 0
Time for construction of square roots      ...    0.343 sec
Total time needed                          ...    1.122 sec

-------------------
DFT GRID GENERATION
-------------------

General Integration Accuracy     IntAcc      ...  4.670
Radial Grid Type                 RadialGrid  ... Gauss-Chebyshev
Angular Grid (max. acc.)         AngularGrid ... Lebedev-302
Angular grid pruning method      GridPruning ... 3 (G Style)
Weight generation scheme         WeightScheme... Becke
Basis function cutoff            BFCut       ...    1.0000e-11
Integration weight cutoff        WCut        ...    1.0000e-14
Grids for H and He will be reduced by one unit

# of grid points (after initial pruning)     ... 187316 (   0.0 sec)
# of grid points (after weights+screening)   ... 165202 (   0.8 sec)
nearest neighbour list constructed           ...    0.0 sec
Grid point re-assignment to atoms done       ...    0.1 sec
Grid point division into batches done        ...    0.7 sec
Reduced shell lists constructed in    1.7 sec

Total number of grid points                  ...   165202
Total number of batches                      ...     2600
Average number of points per batch           ...       63
Average number of grid points per atom       ...     4589
Average number of shells per batch           ...   117.84 (32.20%)
Average number of basis functions per batch  ...   285.77 (30.34%)
Average number of large shells per batch     ...    75.83 (64.35%)
Average number of large basis fcns per batch ...   187.44 (65.59%)
Maximum spatial batch extension              ...  14.68, 16.12, 24.37 au
Average spatial batch extension              ...   0.26,  0.26,  0.28 au

Time for grid setup =    2.769 sec

------------------------------
INITIAL GUESS: MODEL POTENTIAL
------------------------------
Loading ZORA relativistic densities                ... done
Calculating cut-offs                               ... done
Setting up the integral package                    ... done
Initializing the effective Hamiltonian             ... done
Starting the Coulomb interaction                   ... done (   0.9 sec)
Reading the grid                                   ... done
Mapping shells                                     ... done
Starting the XC term evaluation                    ... done (   2.0 sec)
  promolecular density results
     # of electrons  =    233.993090108
     EX              =   -408.964308077
     EC              =    -10.718556177
     EX+EC           =   -419.682864254
Transforming the Hamiltonian                       ... done (   0.4 sec)
Diagonalizing the Hamiltonian                      ... done (   0.8 sec)
Back transforming the eigenvectors                 ... done (   0.1 sec)
Now organizing SCF variables                       ... done
                      ------------------
                      INITIAL GUESS DONE (   7.3 sec)
                      ------------------
--------------
SCF ITERATIONS
--------------
ITER       Energy         Delta-E        Max-DP      RMS-DP      [F,P]     Damp
               ***  Starting incremental Fock matrix formation  ***
  0 -10726.2607559637   0.00000000000010.48510480  0.05111946  1.3900585 0.7000
  1 -10719.0303557868   7.230400176944 4.97922477  0.01816164  0.9853955 0.7000
  2 -10726.7444362462  -7.714080459387 2.31452612  0.01217750  0.6659588 0.7000
  3 -10731.3946812891  -4.650245042942 1.67187756  0.00860959  0.4593093 0.7000
  4 -10735.3309907995  -3.936309510400 1.17631865  0.00617524  0.3131308 0.7000
  5 -10737.8922273642  -2.561236564645 0.84439755  0.00438473  0.2154674 0.7000
                               ***Turning on DIIS***
  6 -10739.7282039524  -1.835976588263 0.59721510  0.00306683  0.1488291 0.7000
  7 -10741.0098106218  -1.281606669407 0.40350125  0.00213175  0.1024313 0.7000
  8 -10741.9041834494  -0.894372827604 0.94344425  0.00500789  0.0704151 0.0000
  9 -10743.9943164478  -2.090132998404 0.00812741  0.00005797  0.0046952 0.0000
 10 -10743.9945363650  -0.000219917165 0.00405346  0.00002151  0.0046788 0.0000
 11 -10743.9947426580  -0.000206292943 0.00300168  0.00001360  0.0021381 0.0000
 12 -10743.9947841362  -0.000041478235 0.00088912  0.00000813  0.0003996 0.0000
 13 -10743.9947892247  -0.000005088523 0.00009883  0.00000161  0.0002383 0.0000
 14 -10743.9947898700  -0.000000645336 0.00006354  0.00000069  0.0000978 0.0000
 15 -10743.9947900135  -0.000000143486 0.00002975  0.00000027  0.0000655 0.0000
 16 -10743.9947900041   0.000000009453 0.00002600  0.00000016  0.0000354 0.0000
 17 -10743.9947901675  -0.000000163380 0.00002806  0.00000014  0.0000575 0.0000
 18 -10743.9947902477  -0.000000080268 0.00001038  0.00000007  0.0000303 0.0000
 19 -10743.9947903113  -0.000000063577 0.00000467  0.00000003  0.0000074 0.0000
               *** Restarting incremental Fock matrix formation ***
                                   *** Resetting DIIS ***
 20 -10743.9947906184  -0.000000307080 0.00011937  0.00000105  0.0000049 0.0000
 21 -10743.9947906084   0.000000010006 0.00000591  0.00000004  0.0000167 0.0000
 22 -10743.9947906967  -0.000000088365 0.00000274  0.00000002  0.0000034 0.0000
 23 -10743.9947907914  -0.000000094629 0.00000233  0.00000001  0.0000066 0.0000
 24 -10743.9947908381  -0.000000046757 0.00000137  0.00000001  0.0000019 0.0000
                            ***DIIS convergence achieved***

               *****************************************************
               *                     SUCCESS                       *
               *           SCF CONVERGED AFTER  25 CYCLES          *
               *****************************************************


----------------
TOTAL SCF ENERGY
----------------

Total Energy       :       -10743.99479075 Eh         -292358.96150 eV

Components:
Nuclear Repulsion  :         4197.95055034 Eh          114232.04192 eV
Electronic Energy  :       -14941.94534108 Eh         -406591.00342 eV

One Electron Energy:       -23144.77908526 Eh         -629801.45740 eV
Two Electron Energy:         8202.83374418 Eh          223210.45398 eV

Virial components:
Potential Energy   :       -21821.01106654 Eh         -593779.89831 eV
Kinetic Energy     :        11077.01627579 Eh          301420.93681 eV
Virial Ratio       :            1.96993581


DFT components:
N(Alpha)           :      117.000156074718 electrons
N(Beta)            :      117.000156074718 electrons
N(Total)           :      234.000312149436 electrons
E(X)               :     -405.276398156723 Eh       
E(C)               :      -10.777166824677 Eh       
E(XC)              :     -416.053564981401 Eh       

---------------
SCF CONVERGENCE
---------------

  Last Energy change         ...    9.1639e-08  Tolerance :   1.0000e-08
  Last MAX-Density change    ...    9.2923e-07  Tolerance :   1.0000e-07
  Last RMS-Density change    ...    8.8000e-09  Tolerance :   5.0000e-09
  Last DIIS Error            ...    4.0385e-07  Tolerance :   5.0000e-07

             **** THE GBW FILE WAS UPDATED (rhac_bp86.gbw) ****
             **** DENSITY FILE WAS UPDATED (rhac_bp86.scfp.tmp) ****
             **** ENERGY FILE WAS UPDATED (rhac_bp86.en.tmp) ****

                    ********************************
                    * MULLIKEN POPULATION ANALYSIS *
                    ********************************

-----------------------
MULLIKEN ATOMIC CHARGES
-----------------------
   0 C :    0.373424
   1 C :   -0.373487
   2 C :    0.389632
   3 C :   -0.375693
   4 H :    0.132913
   5 H :    0.137842
   6 H :    0.137879
   7 H :    0.134841
   8 H :    0.137129
   9 H :    0.137111
  10 O :   -0.350477
  11 O :   -0.350603
  12 O :   -0.367889
  13 O :   -0.367845
  14 O :   -0.328907
  15 Rh:    0.516302
  16 Rh:    0.516303
  17 O :   -0.350601
  18 O :   -0.367843
  19 C :    0.389635
  20 O :   -0.350474
  21 O :   -0.367890
  22 O :   -0.328908
  23 C :    0.373423
  24 C :   -0.375693
  25 C :   -0.373489
  26 H :    0.132913
  27 H :    0.137843
  28 H :    0.137880
  29 H :    0.134842
  30 H :    0.137129
  31 H :    0.137110
  32 H :    0.208945
  33 H :    0.208881
  34 H :    0.208945
  35 H :    0.208880
Sum of atomic charges:   -0.0000000

--------------------------------
MULLIKEN REDUCED ORBITAL CHARGES
--------------------------------
  0 C s       :     3.092090  s :     3.092090
      pz      :     0.676630  p :     2.243975
      px      :     0.785690
      py      :     0.781655
      dz2     :     0.080450  d :     0.266436
      dxz     :     0.071852
      dyz     :     0.064364
      dx2y2   :     0.021769
      dxy     :     0.028001
      f0      :     0.007631  f :     0.024076
      f+1     :     0.003507
      f-1     :     0.004682
      f+2     :     0.003409
      f-2     :     0.003156
      f+3     :     0.001061
      f-3     :     0.000630
  1 C s       :     3.283143  s :     3.283143
      pz      :     1.082722  p :     3.035656
      px      :     1.061280
      py      :     0.891653
      dz2     :     0.009070  d :     0.051041
      dxz     :     0.007137
      dyz     :     0.013421
      dx2y2   :     0.008952
      dxy     :     0.012461
      f0      :     0.000362  f :     0.003647
      f+1     :     0.000583
      f-1     :     0.000601
      f+2     :     0.000610
      f-2     :     0.000177
      f+3     :     0.000653
      f-3     :     0.000661
  2 C s       :     3.088875  s :     3.088875
      pz      :     0.677535  p :     2.232580
      px      :     0.771733
      py      :     0.783312
      dz2     :     0.081198  d :     0.264687
      dxz     :     0.062864
      dyz     :     0.070906
      dx2y2   :     0.021744
      dxy     :     0.027975
      f0      :     0.007751  f :     0.024226
      f+1     :     0.004699
      f-1     :     0.003516
      f+2     :     0.003394
      f-2     :     0.003165
      f+3     :     0.000634
      f-3     :     0.001067
  3 C s       :     3.286003  s :     3.286003
      pz      :     1.082576  p :     3.035020
      px      :     0.890774
      py      :     1.061669
      dz2     :     0.008943  d :     0.051025
      dxz     :     0.013422
      dyz     :     0.007163
      dx2y2   :     0.009024
      dxy     :     0.012472
      f0      :     0.000359  f :     0.003646
      f+1     :     0.000603
      f-1     :     0.000581
      f+2     :     0.000610
      f-2     :     0.000177
      f+3     :     0.000660
      f-3     :     0.000655
  4 H s       :     0.834239  s :     0.834239
      pz      :     0.011420  p :     0.031230
      px      :     0.009582
      py      :     0.010228
      dz2     :     0.000023  d :     0.001618
      dxz     :     0.000709
      dyz     :     0.000055
      dx2y2   :     0.000354
      dxy     :     0.000477
  5 H s       :     0.829034  s :     0.829034
      pz      :     0.010938  p :     0.031489
      px      :     0.011062
      py      :     0.009489
      dz2     :     0.000528  d :     0.001635
      dxz     :     0.000301
      dyz     :     0.000362
      dx2y2   :     0.000299
      dxy     :     0.000146
  6 H s       :     0.829002  s :     0.829002
      pz      :     0.010931  p :     0.031484
      px      :     0.011065
      py      :     0.009489
      dz2     :     0.000529  d :     0.001635
      dxz     :     0.000298
      dyz     :     0.000361
      dx2y2   :     0.000300
      dxy     :     0.000146
  7 H s       :     0.832318  s :     0.832318
      pz      :     0.011363  p :     0.031226
      px      :     0.010232
      py      :     0.009631
      dz2     :     0.000023  d :     0.001615
      dxz     :     0.000054
      dyz     :     0.000708
      dx2y2   :     0.000353
      dxy     :     0.000477
  8 H s       :     0.829719  s :     0.829719
      pz      :     0.010912  p :     0.031515
      px      :     0.009516
      py      :     0.011087
      dz2     :     0.000529  d :     0.001636
      dxz     :     0.000360
      dyz     :     0.000299
      dx2y2   :     0.000301
      dxy     :     0.000147
  9 H s       :     0.829737  s :     0.829737
      pz      :     0.010912  p :     0.031516
      px      :     0.009518
      py      :     0.011087
      dz2     :     0.000528  d :     0.001636
      dxz     :     0.000361
      dyz     :     0.000300
      dx2y2   :     0.000301
      dxy     :     0.000147
 10 O s       :     3.839128  s :     3.839128
      pz      :     1.418027  p :     4.479194
      px      :     1.562424
      py      :     1.498743
      dz2     :     0.009227  d :     0.030482
      dxz     :     0.007083
      dyz     :     0.008281
      dx2y2   :     0.002468
      dxy     :     0.003422
      f0      :     0.000396  f :     0.001673
      f+1     :     0.000269
      f-1     :     0.000382
      f+2     :     0.000211
      f-2     :     0.000205
      f+3     :     0.000110
      f-3     :     0.000099
 11 O s       :     3.839026  s :     3.839026
      pz      :     1.418324  p :     4.479423
      px      :     1.562457
      py      :     1.498641
      dz2     :     0.009225  d :     0.030482
      dxz     :     0.007080
      dyz     :     0.008284
      dx2y2   :     0.002469
      dxy     :     0.003424
      f0      :     0.000396  f :     0.001673
      f+1     :     0.000269
      f-1     :     0.000382
      f+2     :     0.000211
      f-2     :     0.000205
      f+3     :     0.000110
      f-3     :     0.000099
 12 O s       :     3.832015  s :     3.832015
      pz      :     1.431894  p :     4.503822
      px      :     1.505231
      py      :     1.566697
      dz2     :     0.009128  d :     0.030363
      dxz     :     0.008271
      dyz     :     0.006997
      dx2y2   :     0.002478
      dxy     :     0.003489
      f0      :     0.000400  f :     0.001689
      f+1     :     0.000387
      f-1     :     0.000271
      f+2     :     0.000213
      f-2     :     0.000207
      f+3     :     0.000100
      f-3     :     0.000111
 13 O s       :     3.832060  s :     3.832060
      pz      :     1.431686  p :     4.503740
      px      :     1.505426
      py      :     1.566627
      dz2     :     0.009130  d :     0.030357
      dxz     :     0.008267
      dyz     :     0.007000
      dx2y2   :     0.002475
      dxy     :     0.003485
      f0      :     0.000400  f :     0.001689
      f+1     :     0.000387
      f-1     :     0.000272
      f+2     :     0.000213
      f-2     :     0.000206
      f+3     :     0.000100
      f-3     :     0.000111
 14 O s       :     3.743589  s :     3.743589
      pz      :     1.452993  p :     4.574680
      px      :     1.209723
      py      :     1.911964
      dz2     :     0.001191  d :     0.010214
      dxz     :     0.005941
      dyz     :     0.002035
      dx2y2   :     0.001015
      dxy     :     0.000032
      f0      :    -0.000030  f :     0.000424
      f+1     :    -0.000031
      f-1     :     0.000031
      f+2     :     0.000181
      f-2     :     0.000001
      f+3     :     0.000177
      f-3     :     0.000094
 15 Rhs       :     8.554337  s :     8.554337
      pz      :     6.065021  p :    18.255766
      px      :     6.092796
      py      :     6.097949
      dz2     :     3.085316  d :    17.665139
      dxz     :     3.957801
      dyz     :     3.964294
      dx2y2   :     2.733326
      dxy     :     3.924401
      f0      :     0.001147  f :     0.008456
      f+1     :     0.001288
      f-1     :     0.001363
      f+2     :     0.000543
      f-2     :     0.000034
      f+3     :     0.002039
      f-3     :     0.002041
 16 Rhs       :     8.554338  s :     8.554338
      pz      :     6.065021  p :    18.255766
      px      :     6.092795
      py      :     6.097949
      dz2     :     3.085316  d :    17.665138
      dxz     :     3.957801
      dyz     :     3.964294
      dx2y2   :     2.733325
      dxy     :     3.924401
      f0      :     0.001147  f :     0.008456
      f+1     :     0.001288
      f-1     :     0.001363
      f+2     :     0.000543
      f-2     :     0.000034
      f+3     :     0.002039
      f-3     :     0.002041
 17 O s       :     3.839027  s :     3.839027
      pz      :     1.418321  p :     4.479419
      px      :     1.562458
      py      :     1.498640
      dz2     :     0.009225  d :     0.030482
      dxz     :     0.007080
      dyz     :     0.008284
      dx2y2   :     0.002469
      dxy     :     0.003424
      f0      :     0.000396  f :     0.001673
      f+1     :     0.000269
      f-1     :     0.000382
      f+2     :     0.000211
      f-2     :     0.000205
      f+3     :     0.000110
      f-3     :     0.000099
 18 O s       :     3.832060  s :     3.832060
      pz      :     1.431685  p :     4.503738
      px      :     1.505426
      py      :     1.566627
      dz2     :     0.009130  d :     0.030357
      dxz     :     0.008267
      dyz     :     0.007000
      dx2y2   :     0.002475
      dxy     :     0.003485
      f0      :     0.000400  f :     0.001689
      f+1     :     0.000387
      f-1     :     0.000272
      f+2     :     0.000213
      f-2     :     0.000206
      f+3     :     0.000100
      f-3     :     0.000111
 19 C s       :     3.088874  s :     3.088874
      pz      :     0.677534  p :     2.232577
      px      :     0.771732
      py      :     0.783311
      dz2     :     0.081198  d :     0.264687
      dxz     :     0.062864
      dyz     :     0.070906
      dx2y2   :     0.021744
      dxy     :     0.027975
      f0      :     0.007751  f :     0.024226
      f+1     :     0.004699
      f-1     :     0.003516
      f+2     :     0.003394
      f-2     :     0.003165
      f+3     :     0.000634
      f-3     :     0.001067
 20 O s       :     3.839129  s :     3.839129
      pz      :     1.418023  p :     4.479190
      px      :     1.562424
      py      :     1.498742
      dz2     :     0.009227  d :     0.030482
      dxz     :     0.007083
      dyz     :     0.008281
      dx2y2   :     0.002468
      dxy     :     0.003422
      f0      :     0.000396  f :     0.001673
      f+1     :     0.000269
      f-1     :     0.000382
      f+2     :     0.000211
      f-2     :     0.000205
      f+3     :     0.000110
      f-3     :     0.000099
 21 O s       :     3.832015  s :     3.832015
      pz      :     1.431895  p :     4.503823
      px      :     1.505231
      py      :     1.566697
      dz2     :     0.009128  d :     0.030363
      dxz     :     0.008271
      dyz     :     0.006997
      dx2y2   :     0.002478
      dxy     :     0.003489
      f0      :     0.000400  f :     0.001689
      f+1     :     0.000387
      f-1     :     0.000271
      f+2     :     0.000213
      f-2     :     0.000207
      f+3     :     0.000100
      f-3     :     0.000111
 22 O s       :     3.743590  s :     3.743590
      pz      :     1.452994  p :     4.574680
      px      :     1.209723
      py      :     1.911964
      dz2     :     0.001191  d :     0.010214
      dxz     :     0.005941
      dyz     :     0.002035
      dx2y2   :     0.001015
      dxy     :     0.000032
      f0      :    -0.000030  f :     0.000424
      f+1     :    -0.000031
      f-1     :     0.000031
      f+2     :     0.000181
      f-2     :     0.000001
      f+3     :     0.000177
      f-3     :     0.000094
 23 C s       :     3.092092  s :     3.092092
      pz      :     0.676630  p :     2.243974
      px      :     0.785690
      py      :     0.781654
      dz2     :     0.080449  d :     0.266436
      dxz     :     0.071852
      dyz     :     0.064364
      dx2y2   :     0.021769
      dxy     :     0.028001
      f0      :     0.007631  f :     0.024076
      f+1     :     0.003507
      f-1     :     0.004682
      f+2     :     0.003409
      f-2     :     0.003156
      f+3     :     0.001061
      f-3     :     0.000630
 24 C s       :     3.286004  s :     3.286004
      pz      :     1.082575  p :     3.035019
      px      :     0.890774
      py      :     1.061670
      dz2     :     0.008943  d :     0.051025
      dxz     :     0.013422
      dyz     :     0.007163
      dx2y2   :     0.009024
      dxy     :     0.012472
      f0      :     0.000359  f :     0.003646
      f+1     :     0.000603
      f-1     :     0.000581
      f+2     :     0.000610
      f-2     :     0.000177
      f+3     :     0.000660
      f-3     :     0.000655
 25 C s       :     3.283144  s :     3.283144
      pz      :     1.082723  p :     3.035658
      px      :     1.061281
      py      :     0.891654
      dz2     :     0.009070  d :     0.051041
      dxz     :     0.007137
      dyz     :     0.013421
      dx2y2   :     0.008952
      dxy     :     0.012461
      f0      :     0.000362  f :     0.003647
      f+1     :     0.000583
      f-1     :     0.000601
      f+2     :     0.000610
      f-2     :     0.000177
      f+3     :     0.000653
      f-3     :     0.000661
 26 H s       :     0.834238  s :     0.834238
      pz      :     0.011420  p :     0.031230
      px      :     0.009582
      py      :     0.010228
      dz2     :     0.000023  d :     0.001618
      dxz     :     0.000709
      dyz     :     0.000055
      dx2y2   :     0.000354
      dxy     :     0.000477
 27 H s       :     0.829034  s :     0.829034
      pz      :     0.010937  p :     0.031489
      px      :     0.011062
      py      :     0.009489
      dz2     :     0.000528  d :     0.001635
      dxz     :     0.000301
      dyz     :     0.000362
      dx2y2   :     0.000299
      dxy     :     0.000146
 28 H s       :     0.829001  s :     0.829001
      pz      :     0.010931  p :     0.031484
      px      :     0.011065
      py      :     0.009489
      dz2     :     0.000529  d :     0.001635
      dxz     :     0.000298
      dyz     :     0.000361
      dx2y2   :     0.000300
      dxy     :     0.000146
 29 H s       :     0.832317  s :     0.832317
      pz      :     0.011363  p :     0.031226
      px      :     0.010232
      py      :     0.009631
      dz2     :     0.000023  d :     0.001615
      dxz     :     0.000054
      dyz     :     0.000708
      dx2y2   :     0.000353
      dxy     :     0.000477
 30 H s       :     0.829719  s :     0.829719
      pz      :     0.010912  p :     0.031515
      px      :     0.009516
      py      :     0.011087
      dz2     :     0.000529  d :     0.001636
      dxz     :     0.000360
      dyz     :     0.000299
      dx2y2   :     0.000301
      dxy     :     0.000147
 31 H s       :     0.829738  s :     0.829738
      pz      :     0.010912  p :     0.031516
      px      :     0.009518
      py      :     0.011087
      dz2     :     0.000528  d :     0.001636
      dxz     :     0.000361
      dyz     :     0.000300
      dx2y2   :     0.000301
      dxy     :     0.000147
 32 H s       :     0.689899  s :     0.689899
      pz      :     0.026494  p :     0.091697
      px      :     0.027655
      py      :     0.037548
      dz2     :     0.001580  d :     0.009459
      dxz     :     0.002474
      dyz     :     0.001012
      dx2y2   :     0.001785
      dxy     :     0.002609
 33 H s       :     0.689939  s :     0.689939
      pz      :     0.026513  p :     0.091719
      px      :     0.027652
      py      :     0.037554
      dz2     :     0.001586  d :     0.009461
      dxz     :     0.002472
      dyz     :     0.001019
      dx2y2   :     0.001781
      dxy     :     0.002603
 34 H s       :     0.689899  s :     0.689899
      pz      :     0.026494  p :     0.091697
      px      :     0.027655
      py      :     0.037548
      dz2     :     0.001580  d :     0.009459
      dxz     :     0.002474
      dyz     :     0.001012
      dx2y2   :     0.001785
      dxy     :     0.002609
 35 H s       :     0.689939  s :     0.689939
      pz      :     0.026513  p :     0.091719
      px      :     0.027652
      py      :     0.037554
      dz2     :     0.001586  d :     0.009461
      dxz     :     0.002472
      dyz     :     0.001019
      dx2y2   :     0.001781
      dxy     :     0.002603

-------
TIMINGS
-------

Total SCF time: 0 days 0 hours 3 min 21 sec 

Total time                  ....     201.000 sec
Sum of individual times     ....     208.900 sec  (103.9%)

Fock matrix formation       ....     135.440 sec  ( 67.4%)
  Coulomb formation         ....      68.395 sec  ( 50.5% of F)
  Split-RI-J                ....      66.302 sec  ( 49.0% of F)
  XC integration            ....      64.880 sec  ( 47.9% of F)
    Basis function eval.    ....      10.980 sec  ( 16.9% of XC)
    Density eval.           ....      27.421 sec  ( 42.3% of XC)
    XC-Functional eval.     ....       1.321 sec  (  2.0% of XC)
    XC-Potential eval.      ....      16.634 sec  ( 25.6% of XC)
Diagonalization             ....      40.103 sec  ( 20.0%)
Density matrix formation    ....       1.954 sec  (  1.0%)
Population analysis         ....       0.053 sec  (  0.0%)
Initial guess               ....       7.311 sec  (  3.6%)
Orbital Transformation      ....       0.000 sec  (  0.0%)
Orbital Orthonormalization  ....       0.000 sec  (  0.0%)
DIIS solution               ....      21.270 sec  ( 10.6%)
Grid generation             ....       2.769 sec  (  1.4%)
           ************************************************************
           *              Shut down parallel processing               *
           ************************************************************

-------------------------   --------------------
FINAL SINGLE POINT ENERGY    -10743.994790746492
-------------------------   --------------------



           ************************************************************
           *        Program running with 8 parallel MPI-processes     *
           *              working on a common directory               *
           ************************************************************
------------------------------------------------------------------------------
                         ORCA SCF GRADIENT CALCULATION
------------------------------------------------------------------------------

Gradient of the Kohn-Sham DFT energy:
Kohn-Sham wavefunction type      ... RKS
Hartree-Fock exchange scaling    ...    0.000
Number of operators              ...    1
Number of atoms                  ...   36
Basis set dimensions             ...  942
Integral neglect threshold       ... 2.5e-11
Integral primitive cutoff        ... 2.5e-12

Nuclear repulsion gradient       ... done
One Electron Gradient            ... done
Pre-screening matrix             ... done
RI-J gradient                    ... done
Exchange-correlation gradient    ... done

------------------
CARTESIAN GRADIENT
------------------

   1   C   :    0.000004991    0.000438711    0.000003873
   2   C   :    0.000002727   -0.000108275    0.000004545
   3   C   :    0.000434830   -0.000006571    0.000004746
   4   C   :   -0.000105615   -0.000001878   -0.000030654
   5   H   :   -0.000001143    0.000065619    0.000000538
   6   H   :   -0.000009530   -0.000006996   -0.000000070
   7   H   :   -0.000007903   -0.000007002    0.000000524
   8   H   :    0.000065374    0.000000753    0.000004590
   9   H   :   -0.000008157    0.000009053    0.000004245
  10   H   :   -0.000006584    0.000008586    0.000004726
  11   O   :    0.000005860   -0.000163819   -0.000020943
  12   O   :    0.000001472   -0.000160407    0.000009023
  13   O   :   -0.000155993   -0.000001997   -0.000009765
  14   O   :    0.000158847    0.000005188   -0.000014121
  15   O   :    0.000012252   -0.000087175    0.000068662
  16   Rh  :   -0.000002731    0.000021263    0.000267154
  17   Rh  :    0.000002745   -0.000021420   -0.000267323
  18   O   :   -0.000001504    0.000160883   -0.000009278
  19   O   :   -0.000158463   -0.000005114    0.000013289
  20   C   :   -0.000435122    0.000006380   -0.000004132
  21   O   :   -0.000005934    0.000163198    0.000020598
  22   O   :    0.000155917    0.000002031    0.000009988
  23   O   :   -0.000012551    0.000089217   -0.000068939
  24   C   :   -0.000004873   -0.000438820   -0.000003400
  25   C   :    0.000105456    0.000001752    0.000031179
  26   C   :   -0.000002723    0.000107682   -0.000004387
  27   H   :    0.000000900   -0.000065387   -0.000000501
  28   H   :    0.000009617    0.000007219    0.000000280
  29   H   :    0.000008024    0.000007110   -0.000000710
  30   H   :   -0.000065248   -0.000000611   -0.000004611
  31   H   :    0.000008063   -0.000008913   -0.000004474
  32   H   :    0.000006688   -0.000008673   -0.000004966
  33   H   :    0.000022000   -0.000032183    0.000053096
  34   H   :   -0.000022105   -0.000036825    0.000045030
  35   H   :   -0.000022218    0.000031389   -0.000053059
  36   H   :    0.000022632    0.000036031   -0.000044754

Norm of the cartesian gradient     ...    0.001104857
RMS gradient                       ...    0.000106315
MAX gradient                       ...    0.000438820

-------
TIMINGS
-------

Total SCF gradient time            ...       30.283 sec

One electron gradient       ....       1.726 sec  (  5.7%)
Prescreening matrices       ....       1.307 sec  (  4.3%)
RI-J Coulomb gradient       ....      10.863 sec  ( 35.9%)
XC gradient                 ....      15.622 sec  ( 51.6%)
           ************************************************************
           *              Shut down parallel processing               *
           ************************************************************
------------------------------------------------------------------------------
                         ORCA GEOMETRY RELAXATION STEP
------------------------------------------------------------------------------

Reading the OPT-File                    .... done
Getting information on internals        .... done
Copying old internal coords+grads       .... done
Making the new internal coordinates     .... (new redundants).... done
Validating the new internal coordinates .... (new redundants).... done
Calculating the B-matrix                .... done
Calculating the G,G- and P matrices     .... done
Transforming gradient to internals      .... done
Projecting the internal gradient        .... done
Number of atoms                         ....  36
Number of internal coordinates          .... 241
Current Energy                          .... -10743.994790746 Eh
Current gradient norm                   ....     0.001104857 Eh/bohr
Maximum allowed component of the step   ....  0.300
Current trust radius                    ....  0.300
Evaluating the initial hessian          ....  (Almloef) done
Projecting the Hessian                  .... done
Forming the augmented Hessian           .... done
Diagonalizing the augmented Hessian     .... done
Last element of RFO vector              ....  0.999786059
Lowest eigenvalues of augmented Hessian:
 -0.000001810  0.001546074  0.001556027  0.001556688  0.001569214
Length of the computed step             ....  0.020688650
The final length of the internal step   ....  0.020688650
Converting the step to cartesian space:
 Initial RMS(Int)=    0.0013326731
Transforming coordinates:
 Iter   0:  RMS(Cart)=    0.0008635083 RMS(Int)=    0.9046688303
 Iter   1:  RMS(Cart)=    0.0000013529 RMS(Int)=    0.0000008819
 Iter   2:  RMS(Cart)=    0.0000000014 RMS(Int)=    0.0000000021
done
Storing new coordinates                 .... done

                                .--------------------.
          ----------------------|Geometry convergence|---------------------
          Item                value                 Tolerance   Converged
          -----------------------------------------------------------------
          RMS gradient        0.00004825            0.00010000      YES
          MAX gradient        0.00023229            0.00030000      YES
          RMS step            0.00133267            0.00200000      YES
          MAX step            0.00648932            0.00400000      NO
          ....................................................
          Max(Bonds)      0.0001      Max(Angles)    0.02
          Max(Dihed)        0.37      Max(Improp)    0.00
          -----------------------------------------------------------------

       The energies and gradients are converged
       and the convergence on bond distances, angles, dihedrals and impropers
       is acceptable.
       Convergence will therefore be signaled now


                    ***********************HURRAY********************
                    ***        THE OPTIMIZATION HAS CONVERGED     ***
                    *************************************************


    ---------------------------------------------------------------------------
                         Redundant Internal Coordinates

                          --- Optimized Parameters ---  
                            (Angstroem and degrees)

        Definition                    OldVal   dE/dq     Step     FinalVal
    ----------------------------------------------------------------------------
     1. B(C   1,C   0)                1.5125 -0.000056  0.0001    1.5126   
     2. B(C   3,C   2)                1.5121 -0.000054  0.0001    1.5122   
     3. B(H   4,C   1)                1.0996  0.000022 -0.0000    1.0996   
     4. B(H   5,C   1)                1.0953 -0.000007  0.0000    1.0954   
     5. B(H   6,C   1)                1.0954 -0.000007  0.0000    1.0954   
     6. B(H   7,C   3)                1.0996  0.000021 -0.0000    1.0996   
     7. B(H   8,C   3)                1.0953 -0.000004  0.0000    1.0953   
     8. B(H   9,C   3)                1.0953 -0.000011  0.0000    1.0953   
     9. B(O  10,C   0)                1.2776  0.000103 -0.0001    1.2776   
    10. B(O  11,C   0)                1.2777  0.000092 -0.0001    1.2776   
    11. B(O  12,C   2)                1.2779  0.000085 -0.0001    1.2779   
    12. B(Rh 15,O  13)                2.0544  0.000041 -0.0000    2.0544   
    13. B(Rh 15,O  12)                2.0542  0.000024 -0.0000    2.0542   
    14. B(Rh 15,O  14)                2.3632  0.000029 -0.0001    2.3631   
    15. B(Rh 15,O  10)                2.0539  0.000030 -0.0000    2.0539   
    16. B(Rh 16,Rh 15)                2.4010 -0.000232  0.0001    2.4011   
    17. B(Rh 16,O  11)                2.0539  0.000027 -0.0000    2.0539   
    18. B(O  17,Rh 15)                2.0539  0.000027 -0.0000    2.0539   
    19. B(O  18,Rh 16)                2.0544  0.000041 -0.0000    2.0544   
    20. B(O  18,C   2)                1.2779  0.000105 -0.0001    1.2778   
    21. B(C  19,O  13)                1.2779  0.000106 -0.0001    1.2778   
    22. B(O  20,Rh 16)                2.0539  0.000031 -0.0000    2.0539   
    23. B(O  21,C  19)                1.2779  0.000085 -0.0001    1.2779   
    24. B(O  21,Rh 16)                2.0542  0.000024 -0.0000    2.0542   
    25. B(O  22,Rh 16)                2.3632  0.000029 -0.0001    2.3631   
    26. B(C  23,O  20)                1.2776  0.000103 -0.0001    1.2776   
    27. B(C  23,O  17)                1.2777  0.000093 -0.0001    1.2776   
    28. B(C  24,C  19)                1.5121 -0.000054  0.0001    1.5122   
    29. B(C  25,C  23)                1.5125 -0.000056  0.0001    1.5126   
    30. B(H  26,C  25)                1.0996  0.000021 -0.0000    1.0996   
    31. B(H  27,C  25)                1.0953 -0.000008  0.0000    1.0954   
    32. B(H  28,C  25)                1.0953 -0.000007  0.0000    1.0954   
    33. B(H  29,C  24)                1.0996  0.000021 -0.0000    1.0996   
    34. B(H  30,C  24)                1.0953 -0.000004  0.0000    1.0953   
    35. B(H  31,C  24)                1.0953 -0.000011  0.0000    1.0953   
    36. B(H  32,O  22)                0.9678  0.000013 -0.0000    0.9677   
    37. B(H  33,O  22)                0.9677  0.000008 -0.0000    0.9677   
    38. B(H  34,O  14)                0.9678  0.000013 -0.0000    0.9677   
    39. B(H  35,O  14)                0.9677  0.000008 -0.0000    0.9677   
    40. A(C   1,C   0,O  10)          116.70  0.000113   -0.01    116.69   
    41. A(O  10,C   0,O  11)          126.59 -0.000211    0.02    126.61   
    42. A(C   1,C   0,O  11)          116.70  0.000098   -0.01    116.69   
    43. A(H   4,C   1,H   6)          108.12 -0.000032    0.00    108.13   
    44. A(H   4,C   1,H   5)          108.13 -0.000033    0.01    108.14   
    45. A(C   0,C   1,H   4)          108.95  0.000096   -0.02    108.93   
    46. A(C   0,C   1,H   5)          110.44 -0.000020    0.00    110.44   
    47. A(C   0,C   1,H   6)          110.43 -0.000020    0.00    110.44   
    48. A(H   5,C   1,H   6)          110.69  0.000009    0.00    110.69   
    49. A(C   3,C   2,O  12)          116.75  0.000087   -0.01    116.74   
    50. A(O  12,C   2,O  18)          126.48 -0.000211    0.02    126.50   
    51. A(C   3,C   2,O  18)          116.76  0.000124   -0.01    116.75   
    52. A(C   2,C   3,H   9)          110.46 -0.000015    0.00    110.47   
    53. A(C   2,C   3,H   8)          110.46 -0.000025    0.01    110.46   
    54. A(H   7,C   3,H   9)          108.15 -0.000030    0.00    108.15   
    55. A(C   2,C   3,H   7)          108.95  0.000096   -0.02    108.94   
    56. A(H   7,C   3,H   8)          108.14 -0.000033    0.01    108.15   
    57. A(H   8,C   3,H   9)          110.60  0.000009    0.00    110.60   
    58. A(C   0,O  10,Rh 15)          118.35  0.000076   -0.01    118.34   
    59. A(C   0,O  11,Rh 16)          118.35  0.000088   -0.01    118.34   
    60. A(C   2,O  12,Rh 15)          118.42  0.000087   -0.01    118.40   
    61. A(Rh 15,O  13,C  19)          118.42  0.000078   -0.01    118.41   
    62. A(Rh 15,O  14,H  35)          126.03  0.000027   -0.01    126.03   
    63. A(H  34,O  14,H  35)          107.99 -0.000064    0.01    108.00   
    64. A(Rh 15,O  14,H  34)          125.98  0.000038   -0.01    125.97   
    65. A(O  13,Rh 15,O  17)           89.95  0.000001   -0.00     89.95   
    66. A(O  12,Rh 15,O  17)           89.96 -0.000001    0.00     89.96   
    67. A(O  13,Rh 15,Rh 16)           88.34  0.000021   -0.00     88.33   
    68. A(O  12,Rh 15,Rh 16)           88.35  0.000024   -0.00     88.35   
    69. A(O  14,Rh 15,O  17)           91.65 -0.000030    0.00     91.66   
    70. A(O  10,Rh 15,Rh 16)           88.35  0.000027   -0.00     88.35   
    71. A(O  13,Rh 15,O  14)           91.70 -0.000010   -0.00     91.70   
    72. A(O  12,Rh 15,O  14)           91.62 -0.000035    0.00     91.62   
    73. A(O  10,Rh 15,O  14)           91.65 -0.000016   -0.00     91.64   
    74. A(O  10,Rh 15,O  13)           89.96  0.000003   -0.00     89.96   
    75. A(O  10,Rh 15,O  12)           89.94  0.000002    0.00     89.94   
    76. A(Rh 16,Rh 15,O  17)           88.35  0.000019    0.00     88.35   
    77. A(O  11,Rh 16,Rh 15)           88.35  0.000019    0.00     88.35   
    78. A(O  11,Rh 16,O  18)           89.95  0.000001   -0.00     89.95   
    79. A(O  21,Rh 16,O  22)           91.62 -0.000035    0.00     91.62   
    80. A(O  20,Rh 16,O  22)           91.65 -0.000016   -0.00     91.64   
    81. A(O  18,Rh 16,O  22)           91.70 -0.000010   -0.00     91.70   
    82. A(O  11,Rh 16,O  22)           91.65 -0.000030    0.00     91.66   
    83. A(O  20,Rh 16,O  21)           89.94  0.000002    0.00     89.94   
    84. A(Rh 15,Rh 16,O  21)           88.35  0.000024   -0.00     88.35   
    85. A(O  11,Rh 16,O  21)           89.96 -0.000001    0.00     89.96   
    86. A(O  18,Rh 16,O  20)           89.96  0.000003   -0.00     89.96   
    87. A(Rh 15,Rh 16,O  20)           88.35  0.000027   -0.00     88.35   
    88. A(Rh 15,Rh 16,O  18)           88.34  0.000021   -0.00     88.33   
    89. A(Rh 15,O  17,C  23)          118.35  0.000088   -0.01    118.34   
    90. A(C   2,O  18,Rh 16)          118.42  0.000078   -0.01    118.41   
    91. A(O  21,C  19,C  24)          116.75  0.000087   -0.01    116.74   
    92. A(O  13,C  19,C  24)          116.76  0.000124   -0.01    116.75   
    93. A(O  13,C  19,O  21)          126.48 -0.000211    0.02    126.50   
    94. A(Rh 16,O  20,C  23)          118.35  0.000076   -0.01    118.34   
    95. A(Rh 16,O  21,C  19)          118.42  0.000087   -0.01    118.40   
    96. A(H  32,O  22,H  33)          107.99 -0.000064    0.01    108.00   
    97. A(Rh 16,O  22,H  33)          126.03  0.000026   -0.01    126.03   
    98. A(Rh 16,O  22,H  32)          125.98  0.000038   -0.01    125.97   
    99. A(O  20,C  23,C  25)          116.70  0.000113   -0.01    116.69   
   100. A(O  17,C  23,C  25)          116.70  0.000098   -0.01    116.69   
   101. A(O  17,C  23,O  20)          126.59 -0.000211    0.02    126.61   
   102. A(C  19,C  24,H  29)          108.95  0.000096   -0.02    108.94   
   103. A(H  30,C  24,H  31)          110.60  0.000009    0.00    110.60   
   104. A(H  29,C  24,H  31)          108.15 -0.000030    0.00    108.15   
   105. A(C  19,C  24,H  31)          110.46 -0.000015    0.00    110.47   
   106. A(H  29,C  24,H  30)          108.14 -0.000033    0.01    108.15   
   107. A(C  19,C  24,H  30)          110.46 -0.000025    0.01    110.46   
   108. A(H  27,C  25,H  28)          110.69  0.000009    0.00    110.69   
   109. A(H  26,C  25,H  28)          108.12 -0.000032    0.00    108.13   
   110. A(C  23,C  25,H  28)          110.43 -0.000020    0.00    110.44   
   111. A(H  26,C  25,H  27)          108.13 -0.000032    0.01    108.14   
   112. A(C  23,C  25,H  27)          110.44 -0.000020    0.00    110.44   
   113. A(C  23,C  25,H  26)          108.95  0.000096   -0.02    108.93   
   114. D(H   4,C   1,C   0,O  10)     89.41  0.000005   -0.01     89.40   
   115. D(H   5,C   1,C   0,O  11)     29.07  0.000002    0.01     29.08   
   116. D(H   6,C   1,C   0,O  11)    151.83 -0.000013    0.02    151.84   
   117. D(H   6,C   1,C   0,O  10)    -29.20 -0.000004   -0.01    -29.21   
   118. D(H   5,C   1,C   0,O  10)   -151.96  0.000012   -0.01   -151.98   
   119. D(H   4,C   1,C   0,O  11)    -89.56 -0.000005    0.01    -89.55   
   120. D(H   9,C   3,C   2,O  12)    -29.19 -0.000005   -0.01    -29.19   
   121. D(H   9,C   3,C   2,O  18)    151.87 -0.000014    0.01    151.88   
   122. D(H   8,C   3,C   2,O  18)     29.18  0.000001    0.01     29.19   
   123. D(H   7,C   3,C   2,O  18)    -89.47 -0.000001    0.01    -89.46   
   124. D(H   8,C   3,C   2,O  12)   -151.87  0.000011   -0.01   -151.88   
   125. D(H   7,C   3,C   2,O  12)     89.48  0.000008   -0.01     89.47   
   126. D(Rh 15,O  10,C   0,C   1)   -177.66 -0.000017    0.02   -177.64   
   127. D(Rh 15,O  10,C   0,O  11)      1.19 -0.000002   -0.00      1.19   
   128. D(Rh 16,O  11,C   0,C   1)    177.67  0.000019   -0.02    177.64   
   129. D(Rh 16,O  11,C   0,O  10)     -1.19  0.000004    0.00     -1.19   
   130. D(Rh 15,O  12,C   2,O  18)      1.20 -0.000002   -0.00      1.20   
   131. D(Rh 15,O  12,C   2,C   3)   -177.63 -0.000016    0.02   -177.60   
   132. D(C  19,O  13,O  12,C   2)     -1.07 -0.000002    0.00     -1.06   
   133. D(Rh 16,Rh 15,O  13,C  19)     -0.54  0.000002    0.00     -0.54   
   134. D(O  14,Rh 15,O  13,C  19)    179.46 -0.000009    0.01    179.47   
   135. D(O  10,Rh 15,O  12,C   2)     87.81  0.000024   -0.00     87.81   
   136. D(O  14,Rh 15,O  12,C   2)    179.45  0.000007   -0.00    179.45   
   137. D(O  17,Rh 15,O  12,C   2)    -88.89 -0.000023    0.00    -88.89   
   138. D(Rh 16,Rh 15,O  12,C   2)     -0.54 -0.000003    0.00     -0.54   
   139. D(Rh 16,Rh 15,O  10,C   0)     -0.54 -0.000003    0.00     -0.54   
   140. D(O  14,Rh 15,O  10,C   0)    179.50  0.000009   -0.00    179.50   
   141. D(O  10,Rh 15,O  13,C  19)    -88.89 -0.000025    0.00    -88.89   
   142. D(O  17,Rh 15,O  13,C  19)     87.81  0.000021    0.00     87.81   
   143. D(O  13,Rh 15,O  10,C   0)     87.80  0.000019    0.00     87.80   
   144. D(O  12,Rh 15,O  10,C   0)    -88.89 -0.000026    0.00    -88.88   
   145. D(O  17,Rh 15,O  14,H  35)     89.38  0.000009   -0.20     89.18   
   146. D(O  13,Rh 15,O  14,H  35)     -0.62  0.000009   -0.20     -0.82   
   147. D(O  13,Rh 15,O  14,H  34)    179.84 -0.000005    0.17    180.01   
   148. D(O  12,Rh 15,O  14,H  35)    179.38  0.000006   -0.20    179.18   
   149. D(O  12,Rh 15,O  14,H  34)     -0.16 -0.000008    0.17      0.01   
   150. D(O  17,Rh 15,O  14,H  34)    -90.17 -0.000005    0.17    -89.99   
   151. D(O  10,Rh 15,O  14,H  35)    -90.63  0.000006   -0.20    -90.83   
   152. D(O  10,Rh 15,O  14,H  34)     89.83 -0.000008    0.17     90.00   
   153. D(O  20,Rh 16,Rh 15,O  13)     89.99 -0.000002    0.00     89.99   
   154. D(O  20,Rh 16,Rh 15,O  10)    180.00  0.000000    0.00    180.00   
   155. D(O  18,Rh 16,Rh 15,O  13)    180.00 -0.000000    0.00    180.00   
   156. D(O  18,Rh 16,Rh 15,O  12)      0.00  0.000002    0.00      0.00   
   157. D(O  18,Rh 16,Rh 15,O  10)    -89.99  0.000002   -0.00    -89.99   
   158. D(O  20,Rh 16,Rh 15,O  12)    -90.01  0.000000    0.00    -90.01   
   159. D(O  11,Rh 16,Rh 15,O  10)      0.00  0.000002   -0.00      0.00   
   160. D(O  21,Rh 16,O  14,H  35)     -0.62  0.000002   -0.20     -0.81   
   161. D(O  21,Rh 16,O  14,H  34)    179.84 -0.000004    0.17    180.01   
   162. D(O  11,Rh 16,Rh 15,O  13)    -90.01 -0.000000   -0.00    -90.01   
   163. D(O  20,Rh 16,O  14,H  35)     89.37  0.000003   -0.20     89.18   
   164. D(O  20,Rh 16,O  14,H  34)    -90.17 -0.000004    0.17    -90.00   
   165. D(O  11,Rh 16,Rh 15,O  12)     89.99  0.000002   -0.00     89.99   
   166. D(O  18,Rh 16,O  14,H  35)    179.38  0.000005   -0.20    179.19   
   167. D(O  18,Rh 16,O  14,H  34)     -0.16 -0.000002    0.17      0.01   
   168. D(O  11,Rh 16,O  14,H  35)    -90.62  0.000005   -0.20    -90.82   
   169. D(O  11,Rh 16,O  14,H  34)     89.83 -0.000002    0.17     90.00   
   170. D(O  22,Rh 16,O  11,C   0)   -179.43  0.000010   -0.00   -179.43   
   171. D(O  18,Rh 16,Rh 15,O  17)     90.01  0.000000    0.00     90.01   
   172. D(O  21,Rh 16,O  11,C   0)    -87.82 -0.000025   -0.00    -87.82   
   173. D(O  18,Rh 16,O  11,C   0)     88.87  0.000020   -0.00     88.87   
   174. D(Rh 15,Rh 16,O  11,C   0)      0.53 -0.000001   -0.00      0.53   
   175. D(O  20,Rh 16,Rh 15,O  17)     -0.00 -0.000002    0.00     -0.00   
   176. D(O  11,Rh 16,Rh 15,O  17)    180.00 -0.000000    0.00    180.00   
   177. D(O  21,Rh 16,Rh 15,O  17)    -89.99 -0.000002    0.00    -89.99   
   178. D(O  21,Rh 16,Rh 15,O  13)     -0.00 -0.000002   -0.00     -0.00   
   179. D(O  21,Rh 16,Rh 15,O  12)    180.00  0.000000   -0.00    180.00   
   180. D(O  21,Rh 16,Rh 15,O  10)     90.01 -0.000000   -0.00     90.01   
   181. D(C  23,O  17,Rh 15,Rh 16)     -0.53  0.000001    0.00     -0.53   
   182. D(C  23,O  17,Rh 15,O  14)    179.43 -0.000010    0.00    179.43   
   183. D(C  23,O  17,Rh 15,O  13)    -88.87 -0.000020    0.00    -88.87   
   184. D(C  23,O  17,Rh 15,O  12)     87.82  0.000025    0.00     87.82   
   185. D(C  23,O  17,O  10,C   0)     -1.05 -0.000002    0.00     -1.05   
   186. D(C   2,O  18,Rh 16,O  22)   -179.46  0.000009   -0.01   -179.47   
   187. D(C   2,O  18,Rh 16,O  20)     88.89  0.000025   -0.00     88.89   
   188. D(C   2,O  18,Rh 16,Rh 15)      0.54 -0.000002   -0.00      0.54   
   189. D(C   2,O  18,Rh 16,O  11)    -87.81 -0.000021   -0.00    -87.81   
   190. D(Rh 16,O  18,C   2,O  12)     -1.20  0.000004    0.00     -1.20   
   191. D(Rh 16,O  18,C   2,C   3)    177.63  0.000018   -0.02    177.61   
   192. D(C  24,C  19,O  13,Rh 15)   -177.63 -0.000018    0.02   -177.61   
   193. D(O  21,C  19,O  13,Rh 15)      1.20 -0.000004   -0.00      1.20   
   194. D(C  23,O  20,Rh 16,O  22)   -179.50 -0.000009    0.00   -179.50   
   195. D(C  23,O  20,Rh 16,O  21)     88.89  0.000027   -0.00     88.88   
   196. D(C  23,O  20,Rh 16,O  18)    -87.80 -0.000018   -0.00    -87.80   
   197. D(C  23,O  20,Rh 16,Rh 15)      0.54  0.000003   -0.00      0.54   
   198. D(C  23,O  20,O  11,C   0)      1.05  0.000002   -0.00      1.05   
   199. D(Rh 16,O  21,C  19,C  24)    177.63  0.000016   -0.02    177.60   
   200. D(Rh 16,O  21,C  19,O  13)     -1.20  0.000001    0.00     -1.20   
   201. D(C  19,O  21,O  18,C   2)      1.07  0.000002   -0.00      1.06   
   202. D(C  19,O  21,Rh 16,O  22)   -179.45 -0.000007    0.00   -179.45   
   203. D(C  19,O  21,Rh 16,O  20)    -87.81 -0.000024    0.00    -87.81   
   204. D(C  19,O  21,Rh 16,Rh 15)      0.54  0.000003   -0.00      0.54   
   205. D(C  19,O  21,Rh 16,O  11)     88.89  0.000023   -0.00     88.89   
   206. D(H  33,O  22,Rh 16,O  21)   -179.38 -0.000006    0.20   -179.17   
   207. D(H  33,O  22,Rh 16,O  18)      0.62 -0.000009    0.20      0.83   
   208. D(H  33,O  22,Rh 16,O  11)    -89.37 -0.000009    0.20    -89.17   
   209. D(H  32,O  22,Rh 16,O  21)      0.16  0.000008   -0.18     -0.02   
   210. D(H  32,O  22,Rh 16,O  18)   -179.85  0.000006   -0.18   -180.02   
   211. D(H  32,O  22,Rh 16,O  11)     90.16  0.000006   -0.18     89.98   
   212. D(H  33,O  22,Rh 15,O  17)     90.63 -0.000005    0.20     90.83   
   213. D(H  33,O  22,Rh 15,O  13)   -179.38 -0.000005    0.20   -179.18   
   214. D(H  33,O  22,Rh 15,O  12)      0.62 -0.000002    0.20      0.82   
   215. D(H  33,O  22,Rh 15,O  10)    -89.37 -0.000003    0.20    -89.17   
   216. D(H  32,O  22,Rh 15,O  17)    -89.84  0.000002   -0.17    -90.01   
   217. D(H  32,O  22,Rh 15,O  13)      0.16  0.000002   -0.17     -0.02   
   218. D(H  32,O  22,Rh 15,O  12)   -179.84  0.000004   -0.17   -180.02   
   219. D(H  32,O  22,Rh 16,O  20)    -89.84  0.000008   -0.18    -90.01   
   220. D(H  32,O  22,Rh 15,O  10)     90.17  0.000004   -0.18     89.99   
   221. D(H  33,O  22,O  14,H  35)   -179.99 -0.000000    0.00   -179.99   
   222. D(H  33,O  22,O  14,H  34)      0.46 -0.000009    0.37      0.83   
   223. D(H  33,O  22,Rh 16,O  20)     90.63 -0.000006    0.20     90.83   
   224. D(H  32,O  22,O  14,H  35)     -0.46  0.000009   -0.37     -0.83   
   225. D(H  32,O  22,O  14,H  34)    179.99  0.000000   -0.00    179.99   
   226. D(C  25,C  23,O  20,Rh 16)    177.66  0.000017   -0.02    177.64   
   227. D(O  17,C  23,O  20,Rh 16)     -1.19  0.000002    0.00     -1.19   
   228. D(C  25,C  23,O  17,Rh 15)   -177.67 -0.000019    0.02   -177.64   
   229. D(O  20,C  23,O  17,Rh 15)      1.19 -0.000004   -0.00      1.19   
   230. D(H  31,C  24,C  19,O  21)     29.19  0.000005    0.01     29.19   
   231. D(H  31,C  24,C  19,O  13)   -151.87  0.000014   -0.01   -151.88   
   232. D(H  30,C  24,C  19,O  21)    151.87 -0.000011    0.01    151.88   
   233. D(H  30,C  24,C  19,O  13)    -29.18 -0.000001   -0.01    -29.19   
   234. D(H  29,C  24,C  19,O  21)    -89.48 -0.000008    0.01    -89.47   
   235. D(H  29,C  24,C  19,O  13)     89.47  0.000001   -0.01     89.46   
   236. D(H  28,C  25,C  23,O  17)   -151.83  0.000013   -0.02   -151.84   
   237. D(H  27,C  25,C  23,O  20)    151.96 -0.000012    0.01    151.98   
   238. D(H  27,C  25,C  23,O  17)    -29.07 -0.000002   -0.01    -29.08   
   239. D(H  26,C  25,C  23,O  20)    -89.41 -0.000005    0.01    -89.40   
   240. D(H  26,C  25,C  23,O  17)     89.56  0.000005   -0.01     89.55   
   241. D(H  28,C  25,C  23,O  20)     29.20  0.000004    0.01     29.21   
    ----------------------------------------------------------------------------
                 *******************************************************
                 *** FINAL ENERGY EVALUATION AT THE STATIONARY POINT ***
                 ***               (AFTER    1 CYCLES)               ***
                 *******************************************************


           ************************************************************
           *        Program running with 8 parallel MPI-processes     *
           *              working on a common directory               *
           ************************************************************
------------------------------------------------------------------------------
                           ORCA GTO INTEGRAL CALCULATION
                           -- RI-GTO INTEGRALS CHOSEN --
------------------------------------------------------------------------------

                         BASIS SET STATISTICS AND STARTUP INFO

Gaussian basis set:
 # of primitive gaussian shells          ...  574
 # of primitive gaussian functions       ... 1310
 # of contracted shells                  ...  366
 # of contracted basis functions         ...  942
 Highest angular momentum                ...    3
 Maximum contraction depth               ...    8
Auxiliary gaussian basis set:
 # of primitive gaussian shells          ...  648
 # of primitive gaussian functions       ... 1780
 # of contracted shells                  ...  438
 # of contracted aux-basis functions     ... 1322
 Highest angular momentum                ...    4
 Maximum contraction depth               ...    7
Ratio of auxiliary to basis functions    ...  1.40
Integral package used                  ... LIBINT
 One Electron integrals                  ... done
 Ordering auxiliary basis shells         ... done
 Integral threshhold             Thresh  ...  2.500e-11
 Primitive cut-off               TCut    ...  2.500e-12
 Pre-screening matrix                    ... done
 Shell pair data                         ... 
 Ordering of the shell pairs             ... done (   0.012 sec) 42022 of 67161 pairs
 Determination of significant pairs      ... done (   0.000 sec)
 Creation of shell pair data             ... done (   0.015 sec)
 Storage of shell pair data              ... done (   0.015 sec)
 Shell pair data done in (   0.043 sec)
 Computing two index integrals           ... done
 Cholesky decomposition of the V-matrix  ... done


Timings:
 Total evaluation time                   ...   2.682 sec (  0.045 min)
 One electron matrix time                ...   0.653 sec (  0.011 min) = 24.3%
 Schwartz matrix evaluation time         ...   1.635 sec (  0.027 min) = 61.0%
 Two index repulsion integral time       ...   0.097 sec (  0.002 min) =  3.6%
 Cholesky decomposition of V             ...   0.200 sec (  0.003 min) =  7.5%
 Three index repulsion integral time     ...   0.000 sec (  0.000 min) =  0.0%

           ************************************************************
           *              Shut down parallel processing               *
           ************************************************************
------------------------------------------------------------------------------
                          ORCA RELATIVISTIC HAMILTONIAN
------------------------------------------------------------------------------

Relativistic Method            ... ZORA(MP)
Treatment of potential         ... Van Wuellen
Nucleus model                  ... Point Nucleus
Speed of light used            ... 137.03598950000000


            *************************************************
            *         ZERO ORDER REGULAR APPROXIMATION      *
            *                     ZORA(MP)                  *
            *            Programmed by FN according to      *
            *                   C. van Wuellen              *
            *       J. Chem. Phys. (1998) vol 109, 392-399  *
            *************************************************

Terms included in model potential: +V(e,N)+V(C)+V(Xa)+V(VWN-V)
Basis function cutoff value   ... 1.000000e-11
Loading the fitted atomic densities (ZORA)   ... done
Calculating the cutoffs                      ... done
Number of fit functions                      ... 336
One center approximation for ZORA is active
Finding unique atoms                  ... 4 atom types
AtomType   0 (C ) Member=  0 NMembers=   8, NRad=2000 NumBF= 32
             ... doing numerical integration
             ... adding submatrices to 8 actual atoms
AtomType   1 (H ) Member=  4 NMembers=  16, NRad=2000 NumBF= 14
             ... doing numerical integration
             ... adding submatrices to 16 actual atoms
AtomType   2 (O ) Member= 10 NMembers=  10, NRad=2000 NumBF= 32
             ... doing numerical integration
             ... adding submatrices to 10 actual atoms
AtomType   3 (Rh) Member= 15 NMembers=   2, NRad=2000 NumBF= 71
             ... doing numerical integration
             ... adding submatrices to 2 actual atoms
             ... done with one-center part


           ************************************************************
           *        Program running with 8 parallel MPI-processes     *
           *              working on a common directory               *
           ************************************************************
-------------------------------------------------------------------------------
                                 ORCA SCF
-------------------------------------------------------------------------------

------------
SCF SETTINGS
------------
Hamiltonian:
 Density Functional     Method          .... DFT(GTOs)
 Exchange Functional    Exchange        .... B88
   X-Alpha parameter    XAlpha          ....  0.666667
   Becke's b parameter  XBeta           ....  0.004200
 Correlation Functional Correlation     .... P86
 LDA part of GGA corr.  LDAOpt          .... PW91-LDA
 Gradients option       PostSCFGGA      .... off
 RI-approximation to the Coulomb term is turned on
   Number of auxiliary basis functions  .... 1322

Relativistic Settings:
 Scalar relativistic method             .... ZORA
 Speed of light used       Velit        ....       137.035989
Orbital energies will be scaled


General Settings:
 Integral files         IntName         .... rhac_bp86
 Hartree-Fock type      HFTyp           .... RHF
 Total Charge           Charge          ....    0
 Multiplicity           Mult            ....    1
 Number of Electrons    NEL             ....  234
 Basis Dimension        Dim             ....  942
 Nuclear Repulsion      ENuc            ....   4198.0453061860 Eh

Convergence Acceleration:
 DIIS                   CNVDIIS         .... on
   Start iteration      DIISMaxIt       ....    12
   Startup error        DIISStart       ....  0.200000
   # of expansion vecs  DIISMaxEq       ....     5
   Bias factor          DIISBfac        ....   1.050
   Max. coefficient     DIISMaxC        ....  10.000
 Newton-Raphson         CNVNR           .... off
 SOSCF                  CNVSOSCF        .... off
 Level Shifting         CNVShift        .... on
   Level shift para.    LevelShift      ....    0.2500
   Turn off err/grad.   ShiftErr        ....    0.0010
 Zerner damping         CNVZerner       .... off
 Static damping         CNVDamp         .... on
   Fraction old density DampFac         ....    0.7000
   Max. Damping (<1)    DampMax         ....    0.9800
   Min. Damping (>=0)   DampMin         ....    0.0000
   Turn off err/grad.   DampErr         ....    0.1000
 Fernandez-Rico         CNVRico         .... off

SCF Procedure:
 Maximum # iterations   MaxIter         ....   125
 SCF integral mode      SCFMode         .... Direct
   Integral package                     .... LIBINT
 Reset frequeny         DirectResetFreq ....    20
 Integral Threshold     Thresh          ....  2.500e-11 Eh
 Primitive CutOff       TCut            ....  2.500e-12 Eh

Convergence Tolerance:
 Convergence Check Mode ConvCheckMode   .... Total+1el-Energy
 Energy Change          TolE            ....  1.000e-08 Eh
 1-El. energy change                    ....  1.000e-05 Eh
 DIIS Error             TolErr          ....  5.000e-07


Diagonalization of the overlap matrix:
Smallest eigenvalue                        ... 1.930e-04
Time for diagonalization                   ...    0.741 sec
Threshold for overlap eigenvalues          ... 1.000e-08
Number of eigenvalues below threshold      ... 0
Time for construction of square roots      ...    0.341 sec
Total time needed                          ...    1.090 sec

---------------------
INITIAL GUESS: MOREAD
---------------------
Guess MOs are being read from file: rhac_bp86.gbw
Input Geometry matches current geometry (good)
Input basis set matches current basis set (good)
MOs were renormalized
MOs were reorthogonalized (Schmidt)
                      ------------------
                      INITIAL GUESS DONE (  60.8 sec)
                      ------------------
-------------------
DFT GRID GENERATION
-------------------

General Integration Accuracy     IntAcc      ...  4.670
Radial Grid Type                 RadialGrid  ... Gauss-Chebyshev
Angular Grid (max. acc.)         AngularGrid ... Lebedev-302
Angular grid pruning method      GridPruning ... 3 (G Style)
Weight generation scheme         WeightScheme... Becke
Basis function cutoff            BFCut       ...    1.0000e-11
Integration weight cutoff        WCut        ...    1.0000e-14
Grids for H and He will be reduced by one unit

# of grid points (after initial pruning)     ... 187316 (   0.0 sec)
# of grid points (after weights+screening)   ... 165204 (   0.8 sec)
nearest neighbour list constructed           ...    0.0 sec
Grid point re-assignment to atoms done       ...    0.1 sec
Grid point division into batches done        ...    0.7 sec
Reduced shell lists constructed in    1.7 sec

Total number of grid points                  ...   165204
Total number of batches                      ...     2600
Average number of points per batch           ...       63
Average number of grid points per atom       ...     4589
Average number of shells per batch           ...   117.82 (32.19%)
Average number of basis functions per batch  ...   285.71 (30.33%)
Average number of large shells per batch     ...    75.85 (64.37%)
Average number of large basis fcns per batch ...   187.52 (65.63%)
Maximum spatial batch extension              ...  14.68, 16.12, 24.37 au
Average spatial batch extension              ...   0.26,  0.26,  0.28 au

Time for grid setup =    2.744 sec

--------------
SCF ITERATIONS
--------------
ITER       Energy         Delta-E        Max-DP      RMS-DP      [F,P]     Damp
               ***  Starting incremental Fock matrix formation  ***
  0 -10743.9947886681   0.000000000000 0.00018157  0.00000118  0.0009598 0.7000
  1 -10743.9947896890  -0.000001020962 0.00017815  0.00000109  0.0007059 0.7000
                               ***Turning on DIIS***
  2 -10743.9947905076  -0.000000818589 0.00047589  0.00000300  0.0004921 0.0000
  3 -10743.9947923517  -0.000001844130 0.00008276  0.00000040  0.0001053 0.0000
  4 -10743.9947923433   0.000000008466 0.00004297  0.00000027  0.0000527 0.0000
  5 -10743.9947921934   0.000000149867 0.00003374  0.00000016  0.0000472 0.0000
  6 -10743.9947924175  -0.000000224132 0.00001587  0.00000009  0.0000154 0.0000
  7 -10743.9947924134   0.000000004111 0.00001254  0.00000006  0.0000394 0.0000
  8 -10743.9947923455   0.000000067925 0.00000202  0.00000001  0.0000016 0.0000
  9 -10743.9947922900   0.000000055506 0.00000173  0.00000001  0.0000010 0.0000
                            ***DIIS convergence achieved***

               *****************************************************
               *                     SUCCESS                       *
               *           SCF CONVERGED AFTER  10 CYCLES          *
               *****************************************************


----------------
TOTAL SCF ENERGY
----------------

Total Energy       :       -10743.99479231 Eh         -292358.96154 eV

Components:
Nuclear Repulsion  :         4198.04530619 Eh          114234.62036 eV
Electronic Energy  :       -14942.04009849 Eh         -406593.58190 eV

One Electron Energy:       -23144.96489968 Eh         -629806.51366 eV
Two Electron Energy:         8202.92480119 Eh          223212.93177 eV

Virial components:
Potential Energy   :       -21821.01301859 Eh         -593779.95143 eV
Kinetic Energy     :        11077.01822628 Eh          301420.98988 eV
Virial Ratio       :            1.96993564


DFT components:
N(Alpha)           :      117.000157974585 electrons
N(Beta)            :      117.000157974585 electrons
N(Total)           :      234.000315949171 electrons
E(X)               :     -405.276788414738 Eh       
E(C)               :      -10.777212193138 Eh       
E(XC)              :     -416.054000607876 Eh       

---------------
SCF CONVERGENCE
---------------

  Last Energy change         ...   -1.6056e-08  Tolerance :   1.0000e-08
  Last MAX-Density change    ...    8.0042e-07  Tolerance :   1.0000e-07
  Last RMS-Density change    ...    7.0218e-09  Tolerance :   5.0000e-09
  Last DIIS Error            ...    5.2279e-07  Tolerance :   5.0000e-07

             **** THE GBW FILE WAS UPDATED (rhac_bp86.gbw) ****
             **** DENSITY FILE WAS UPDATED (rhac_bp86.scfp.tmp) ****
             **** ENERGY FILE WAS UPDATED (rhac_bp86.en.tmp) ****

                    ********************************
                    * MULLIKEN POPULATION ANALYSIS *
                    ********************************

-----------------------
MULLIKEN ATOMIC CHARGES
-----------------------
   0 C :    0.373338
   1 C :   -0.373515
   2 C :    0.389562
   3 C :   -0.375723
   4 H :    0.132925
   5 H :    0.137799
   6 H :    0.137880
   7 H :    0.134853
   8 H :    0.137118
   9 H :    0.137079
  10 O :   -0.350329
  11 O :   -0.350578
  12 O :   -0.367817
  13 O :   -0.367753
  14 O :   -0.328919
  15 Rh:    0.516218
  16 Rh:    0.516218
  17 O :   -0.350575
  18 O :   -0.367753
  19 C :    0.389560
  20 O :   -0.350327
  21 O :   -0.367817
  22 O :   -0.328919
  23 C :    0.373339
  24 C :   -0.375723
  25 C :   -0.373517
  26 H :    0.132926
  27 H :    0.137800
  28 H :    0.137881
  29 H :    0.134854
  30 H :    0.137118
  31 H :    0.137078
  32 H :    0.208960
  33 H :    0.208900
  34 H :    0.208960
  35 H :    0.208900
Sum of atomic charges:   -0.0000000

--------------------------------
MULLIKEN REDUCED ORBITAL CHARGES
--------------------------------
  0 C s       :     3.092046  s :     3.092046
      pz      :     0.676655  p :     2.244065
      px      :     0.785674
      py      :     0.781735
      dz2     :     0.080460  d :     0.266472
      dxz     :     0.071868
      dyz     :     0.064370
      dx2y2   :     0.021776
      dxy     :     0.027999
      f0      :     0.007634  f :     0.024079
      f+1     :     0.003509
      f-1     :     0.004684
      f+2     :     0.003408
      f-2     :     0.003154
      f+3     :     0.001060
      f-3     :     0.000630
  1 C s       :     3.283152  s :     3.283152
      pz      :     1.082709  p :     3.035669
      px      :     1.061273
      py      :     0.891687
      dz2     :     0.009070  d :     0.051046
      dxz     :     0.007134
      dyz     :     0.013430
      dx2y2   :     0.008961
      dxy     :     0.012452
      f0      :     0.000362  f :     0.003647
      f+1     :     0.000582
      f-1     :     0.000602
      f+2     :     0.000610
      f-2     :     0.000177
      f+3     :     0.000653
      f-3     :     0.000661
  2 C s       :     3.088829  s :     3.088829
      pz      :     0.677558  p :     2.232656
      px      :     0.771802
      py      :     0.783295
      dz2     :     0.081210  d :     0.264725
      dxz     :     0.062870
      dyz     :     0.070921
      dx2y2   :     0.021751
      dxy     :     0.027973
      f0      :     0.007753  f :     0.024229
      f+1     :     0.004701
      f-1     :     0.003519
      f+2     :     0.003392
      f-2     :     0.003164
      f+3     :     0.000634
      f-3     :     0.001066
  3 C s       :     3.286016  s :     3.286016
      pz      :     1.082563  p :     3.035032
      px      :     0.890807
      py      :     1.061661
      dz2     :     0.008943  d :     0.051030
      dxz     :     0.013430
      dyz     :     0.007160
      dx2y2   :     0.009033
      dxy     :     0.012464
      f0      :     0.000359  f :     0.003646
      f+1     :     0.000603
      f-1     :     0.000581
      f+2     :     0.000610
      f-2     :     0.000178
      f+3     :     0.000660
      f-3     :     0.000655
  4 H s       :     0.834227  s :     0.834227
      pz      :     0.011420  p :     0.031229
      px      :     0.009578
      py      :     0.010230
      dz2     :     0.000023  d :     0.001618
      dxz     :     0.000709
      dyz     :     0.000055
      dx2y2   :     0.000353
      dxy     :     0.000478
  5 H s       :     0.829077  s :     0.829077
      pz      :     0.010937  p :     0.031489
      px      :     0.011061
      py      :     0.009491
      dz2     :     0.000528  d :     0.001635
      dxz     :     0.000301
      dyz     :     0.000362
      dx2y2   :     0.000299
      dxy     :     0.000146
  6 H s       :     0.829003  s :     0.829003
      pz      :     0.010931  p :     0.031483
      px      :     0.011063
      py      :     0.009489
      dz2     :     0.000529  d :     0.001635
      dxz     :     0.000298
      dyz     :     0.000361
      dx2y2   :     0.000300
      dxy     :     0.000146
  7 H s       :     0.832307  s :     0.832307
      pz      :     0.011363  p :     0.031225
      px      :     0.010235
      py      :     0.009627
      dz2     :     0.000023  d :     0.001615
      dxz     :     0.000054
      dyz     :     0.000708
      dx2y2   :     0.000352
      dxy     :     0.000478
  8 H s       :     0.829731  s :     0.829731
      pz      :     0.010912  p :     0.031515
      px      :     0.009517
      py      :     0.011086
      dz2     :     0.000529  d :     0.001636
      dxz     :     0.000360
      dyz     :     0.000299
      dx2y2   :     0.000301
      dxy     :     0.000147
  9 H s       :     0.829770  s :     0.829770
      pz      :     0.010912  p :     0.031515
      px      :     0.009518
      py      :     0.011086
      dz2     :     0.000528  d :     0.001636
      dxz     :     0.000360
      dyz     :     0.000300
      dx2y2   :     0.000301
      dxy     :     0.000147
 10 O s       :     3.839156  s :     3.839156
      pz      :     1.417776  p :     4.479014
      px      :     1.562395
      py      :     1.498843
      dz2     :     0.009230  d :     0.030487
      dxz     :     0.007086
      dyz     :     0.008281
      dx2y2   :     0.002468
      dxy     :     0.003422
      f0      :     0.000396  f :     0.001673
      f+1     :     0.000270
      f-1     :     0.000381
      f+2     :     0.000211
      f-2     :     0.000205
      f+3     :     0.000110
      f-3     :     0.000099
 11 O s       :     3.838979  s :     3.838979
      pz      :     1.418308  p :     4.479441
      px      :     1.562464
      py      :     1.498670
      dz2     :     0.009225  d :     0.030485
      dxz     :     0.007082
      dyz     :     0.008285
      dx2y2   :     0.002470
      dxy     :     0.003424
      f0      :     0.000396  f :     0.001673
      f+1     :     0.000269
      f-1     :     0.000382
      f+2     :     0.000211
      f-2     :     0.000205
      f+3     :     0.000110
      f-3     :     0.000099
 12 O s       :     3.832007  s :     3.832007
      pz      :     1.431759  p :     4.503754
      px      :     1.505304
      py      :     1.566692
      dz2     :     0.009129  d :     0.030366
      dxz     :     0.008272
      dyz     :     0.006999
      dx2y2   :     0.002478
      dxy     :     0.003489
      f0      :     0.000400  f :     0.001689
      f+1     :     0.000387
      f-1     :     0.000271
      f+2     :     0.000213
      f-2     :     0.000207
      f+3     :     0.000100
      f-3     :     0.000111
 13 O s       :     3.832045  s :     3.832045
      pz      :     1.431562  p :     4.503659
      px      :     1.505485
      py      :     1.566611
      dz2     :     0.009131  d :     0.030361
      dxz     :     0.008267
      dyz     :     0.007002
      dx2y2   :     0.002476
      dxy     :     0.003485
      f0      :     0.000400  f :     0.001689
      f+1     :     0.000387
      f-1     :     0.000272
      f+2     :     0.000213
      f-2     :     0.000206
      f+3     :     0.000100
      f-3     :     0.000111
 14 O s       :     3.743559  s :     3.743559
      pz      :     1.453082  p :     4.574722
      px      :     1.209703
      py      :     1.911938
      dz2     :     0.001191  d :     0.010213
      dxz     :     0.005940
      dyz     :     0.002035
      dx2y2   :     0.001015
      dxy     :     0.000032
      f0      :    -0.000030  f :     0.000424
      f+1     :    -0.000031
      f-1     :     0.000031
      f+2     :     0.000181
      f-2     :     0.000001
      f+3     :     0.000177
      f-3     :     0.000095
 15 Rhs       :     8.554365  s :     8.554365
      pz      :     6.065054  p :    18.255790
      px      :     6.092788
      py      :     6.097948
      dz2     :     3.085303  d :    17.665171
      dxz     :     3.957796
      dyz     :     3.964288
      dx2y2   :     2.733359
      dxy     :     3.924425
      f0      :     0.001147  f :     0.008456
      f+1     :     0.001288
      f-1     :     0.001363
      f+2     :     0.000544
      f-2     :     0.000034
      f+3     :     0.002039
      f-3     :     0.002041
 16 Rhs       :     8.554365  s :     8.554365
      pz      :     6.065054  p :    18.255791
      px      :     6.092788
      py      :     6.097948
      dz2     :     3.085303  d :    17.665170
      dxz     :     3.957796
      dyz     :     3.964288
      dx2y2   :     2.733358
      dxy     :     3.924425
      f0      :     0.001147  f :     0.008456
      f+1     :     0.001288
      f-1     :     0.001363
      f+2     :     0.000544
      f-2     :     0.000034
      f+3     :     0.002039
      f-3     :     0.002041
 17 O s       :     3.838981  s :     3.838981
      pz      :     1.418304  p :     4.479436
      px      :     1.562464
      py      :     1.498668
      dz2     :     0.009225  d :     0.030485
      dxz     :     0.007082
      dyz     :     0.008285
      dx2y2   :     0.002470
      dxy     :     0.003424
      f0      :     0.000396  f :     0.001673
      f+1     :     0.000269
      f-1     :     0.000382
      f+2     :     0.000211
      f-2     :     0.000205
      f+3     :     0.000110
      f-3     :     0.000099
 18 O s       :     3.832045  s :     3.832045
      pz      :     1.431563  p :     4.503659
      px      :     1.505485
      py      :     1.566611
      dz2     :     0.009131  d :     0.030361
      dxz     :     0.008267
      dyz     :     0.007002
      dx2y2   :     0.002476
      dxy     :     0.003485
      f0      :     0.000400  f :     0.001689
      f+1     :     0.000387
      f-1     :     0.000272
      f+2     :     0.000213
      f-2     :     0.000206
      f+3     :     0.000100
      f-3     :     0.000111
 19 C s       :     3.088829  s :     3.088829
      pz      :     0.677558  p :     2.232657
      px      :     0.771804
      py      :     0.783295
      dz2     :     0.081210  d :     0.264724
      dxz     :     0.062870
      dyz     :     0.070921
      dx2y2   :     0.021751
      dxy     :     0.027973
      f0      :     0.007753  f :     0.024229
      f+1     :     0.004701
      f-1     :     0.003519
      f+2     :     0.003392
      f-2     :     0.003164
      f+3     :     0.000634
      f-3     :     0.001066
 20 O s       :     3.839158  s :     3.839158
      pz      :     1.417773  p :     4.479010
      px      :     1.562395
      py      :     1.498842
      dz2     :     0.009230  d :     0.030487
      dxz     :     0.007087
      dyz     :     0.008281
      dx2y2   :     0.002468
      dxy     :     0.003422
      f0      :     0.000396  f :     0.001673
      f+1     :     0.000270
      f-1     :     0.000381
      f+2     :     0.000211
      f-2     :     0.000205
      f+3     :     0.000110
      f-3     :     0.000099
 21 O s       :     3.832007  s :     3.832007
      pz      :     1.431759  p :     4.503754
      px      :     1.505304
      py      :     1.566692
      dz2     :     0.009129  d :     0.030366
      dxz     :     0.008272
      dyz     :     0.006999
      dx2y2   :     0.002478
      dxy     :     0.003489
      f0      :     0.000400  f :     0.001689
      f+1     :     0.000387
      f-1     :     0.000271
      f+2     :     0.000213
      f-2     :     0.000207
      f+3     :     0.000100
      f-3     :     0.000111
 22 O s       :     3.743560  s :     3.743560
      pz      :     1.453084  p :     4.574722
      px      :     1.209703
      py      :     1.911936
      dz2     :     0.001191  d :     0.010214
      dxz     :     0.005940
      dyz     :     0.002035
      dx2y2   :     0.001015
      dxy     :     0.000032
      f0      :    -0.000030  f :     0.000424
      f+1     :    -0.000031
      f-1     :     0.000031
      f+2     :     0.000181
      f-2     :     0.000001
      f+3     :     0.000177
      f-3     :     0.000095
 23 C s       :     3.092046  s :     3.092046
      pz      :     0.676654  p :     2.244063
      px      :     0.785674
      py      :     0.781734
      dz2     :     0.080460  d :     0.266473
      dxz     :     0.071868
      dyz     :     0.064370
      dx2y2   :     0.021776
      dxy     :     0.027999
      f0      :     0.007634  f :     0.024079
      f+1     :     0.003509
      f-1     :     0.004684
      f+2     :     0.003408
      f-2     :     0.003154
      f+3     :     0.001060
      f-3     :     0.000630
 24 C s       :     3.286016  s :     3.286016
      pz      :     1.082562  p :     3.035031
      px      :     0.890807
      py      :     1.061662
      dz2     :     0.008943  d :     0.051030
      dxz     :     0.013430
      dyz     :     0.007160
      dx2y2   :     0.009033
      dxy     :     0.012464
      f0      :     0.000359  f :     0.003646
      f+1     :     0.000603
      f-1     :     0.000581
      f+2     :     0.000610
      f-2     :     0.000178
      f+3     :     0.000660
      f-3     :     0.000655
 25 C s       :     3.283152  s :     3.283152
      pz      :     1.082710  p :     3.035671
      px      :     1.061273
      py      :     0.891688
      dz2     :     0.009070  d :     0.051047
      dxz     :     0.007134
      dyz     :     0.013430
      dx2y2   :     0.008961
      dxy     :     0.012452
      f0      :     0.000362  f :     0.003647
      f+1     :     0.000582
      f-1     :     0.000602
      f+2     :     0.000610
      f-2     :     0.000177
      f+3     :     0.000653
      f-3     :     0.000661
 26 H s       :     0.834227  s :     0.834227
      pz      :     0.011420  p :     0.031229
      px      :     0.009578
      py      :     0.010230
      dz2     :     0.000023  d :     0.001618
      dxz     :     0.000709
      dyz     :     0.000055
      dx2y2   :     0.000353
      dxy     :     0.000478
 27 H s       :     0.829076  s :     0.829076
      pz      :     0.010937  p :     0.031489
      px      :     0.011061
      py      :     0.009491
      dz2     :     0.000528  d :     0.001635
      dxz     :     0.000301
      dyz     :     0.000362
      dx2y2   :     0.000299
      dxy     :     0.000146
 28 H s       :     0.829002  s :     0.829002
      pz      :     0.010931  p :     0.031483
      px      :     0.011063
      py      :     0.009489
      dz2     :     0.000529  d :     0.001635
      dxz     :     0.000298
      dyz     :     0.000361
      dx2y2   :     0.000300
      dxy     :     0.000146
 29 H s       :     0.832306  s :     0.832306
      pz      :     0.011363  p :     0.031225
      px      :     0.010235
      py      :     0.009627
      dz2     :     0.000023  d :     0.001615
      dxz     :     0.000054
      dyz     :     0.000708
      dx2y2   :     0.000352
      dxy     :     0.000478
 30 H s       :     0.829731  s :     0.829731
      pz      :     0.010912  p :     0.031515
      px      :     0.009517
      py      :     0.011086
      dz2     :     0.000529  d :     0.001636
      dxz     :     0.000360
      dyz     :     0.000299
      dx2y2   :     0.000301
      dxy     :     0.000147
 31 H s       :     0.829770  s :     0.829770
      pz      :     0.010912  p :     0.031515
      px      :     0.009518
      py      :     0.011086
      dz2     :     0.000528  d :     0.001636
      dxz     :     0.000360
      dyz     :     0.000300
      dx2y2   :     0.000301
      dxy     :     0.000147
 32 H s       :     0.689885  s :     0.689885
      pz      :     0.026492  p :     0.091696
      px      :     0.027657
      py      :     0.037546
      dz2     :     0.001580  d :     0.009459
      dxz     :     0.002474
      dyz     :     0.001012
      dx2y2   :     0.001785
      dxy     :     0.002609
 33 H s       :     0.689923  s :     0.689923
      pz      :     0.026511  p :     0.091717
      px      :     0.027654
      py      :     0.037552
      dz2     :     0.001586  d :     0.009461
      dxz     :     0.002472
      dyz     :     0.001018
      dx2y2   :     0.001782
      dxy     :     0.002603
 34 H s       :     0.689885  s :     0.689885
      pz      :     0.026492  p :     0.091696
      px      :     0.027657
      py      :     0.037546
      dz2     :     0.001580  d :     0.009459
      dxz     :     0.002474
      dyz     :     0.001012
      dx2y2   :     0.001785
      dxy     :     0.002609
 35 H s       :     0.689923  s :     0.689923
      pz      :     0.026511  p :     0.091717
      px      :     0.027654
      py      :     0.037552
      dz2     :     0.001586  d :     0.009461
      dxz     :     0.002472
      dyz     :     0.001018
      dx2y2   :     0.001782
      dxy     :     0.002603

-------
TIMINGS
-------

Total SCF time: 0 days 0 hours 1 min 16 sec 

Total time                  ....      76.593 sec
Sum of individual times     ....     136.449 sec  (178.1%)

Fock matrix formation       ....      47.248 sec  ( 61.7%)
  Coulomb formation         ....      23.596 sec  ( 49.9% of F)
  Split-RI-J                ....      22.803 sec  ( 48.3% of F)
  XC integration            ....      22.812 sec  ( 48.3% of F)
    Basis function eval.    ....       4.733 sec  ( 20.7% of XC)
    Density eval.           ....      11.325 sec  ( 49.6% of XC)
    XC-Functional eval.     ....       0.550 sec  (  2.4% of XC)
    XC-Potential eval.      ....       4.279 sec  ( 18.8% of XC)
Diagonalization             ....      16.632 sec  ( 21.7%)
Density matrix formation    ....       0.699 sec  (  0.9%)
Population analysis         ....       0.020 sec  (  0.0%)
Initial guess               ....      60.831 sec  ( 79.4%)
Orbital Transformation      ....       0.000 sec  (  0.0%)
Orbital Orthonormalization  ....      60.719 sec  ( 79.3%)
DIIS solution               ....       8.275 sec  ( 10.8%)
Grid generation             ....       2.744 sec  (  3.6%)
           ************************************************************
           *              Shut down parallel processing               *
           ************************************************************

-------------------------   --------------------
FINAL SINGLE POINT ENERGY    -10743.994792306057
-------------------------   --------------------

                                *** OPTIMIZATION RUN DONE ***

                            ***************************************
                            *     ORCA property calculations      *
                            ***************************************

                                    ---------------------
                                    Active property flags
                                    ---------------------
   (+) Dipole Moment
   (+) Polarizability


------------------------------------------------------------------------------
                       ORCA ELECTRIC PROPERTIES CALCULATION
------------------------------------------------------------------------------

Dipole Moment Calculation                       ... on
Quadrupole Moment Calculation                   ... off
Polarizability Calculation                      ... Analytic (CP-SCF)
GBWName                                         ... rhac_bp86.gbw
Electron density file                           ... rhac_bp86.scfp.tmp

-------------
DIPOLE MOMENT
-------------
                                X             Y             Z
Electronic contribution:     -0.00002      -0.00010       0.00001
Nuclear contribution   :      0.00002       0.00024      -0.00001
                        -----------------------------------------
Total Dipole Moment    :     -0.00000       0.00015       0.00000
                        -----------------------------------------
Magnitude (a.u.)       :      0.00015
Magnitude (Debye)      :      0.00038

Transforming and storing MO dipole integrals   ... done

                ... starting polarizability calculation

Opening the Dipole integral file               ... (rhac_bp86.dmo.tmp) done
Reading Dipole-MO integrals                    ... done
Solving CP-SCF equations                       ... 

           ************************************************************
           *        Program running with 8 parallel MPI-processes     *
           *              working on a common directory               *
           ************************************************************

------------------------------------------------------------------------------
                           ORCA CP-SCF CALCULATION
------------------------------------------------------------------------------

Input orbitals are from        ... rhac_bp86.gbw
Input Perturbation             ... rhac_bp86.cpv.tmp
Wavefunction output            ... rhac_bp86.cpu.tmp
Perturbation mode              ... Real perturbation
Solver                         ... POPLE
Max. number of iterations      ... 64
Convergence tolerance          ... 1.000e-06
Integral handling              ... Direct
Number of perturbations        ... 3
Number of operators            ... 1
Orbital ranges used for CP-SCF:
 Operator 0:  Orbitals   0...116  to 117...941
DFT calculation                         ... on
Exchange functional (SCF)               ... B88
Exchange functional (CP-SCF)            ... B88
   X-Alpha parameter    XAlpha (SCF)    ...  0.666667
   X-Alpha parameter    XAlpha (CP-SCF) ...  0.666667
   Becke's b parameter  XBeta (SCF)     ...  0.004200
   Becke's b parameter  XBeta (CP-SCF)  ...  0.004200
Correlation functional (SCF)            ... P86
Correlation functional (CP-SCF)         ... P86
 LDA part of GGA corr.  LDAOpt (SCF)    ... PW91-LDA
 LDA part of GGA corr.  LDAOpt (CP-SCF) ... PW91-LDA
Variables per vector in CP-SCF ... 96525
Number of vectors sought       ... 3
Calculating the xc-kernel      ... done
     CP-SCF ITERATION   0: 
     CP-SCF ITERATION   1:     54.308433346
     CP-SCF ITERATION   2:      2.352131067
     CP-SCF ITERATION   3:      0.102762871
     CP-SCF ITERATION   4:      0.056106995
     CP-SCF ITERATION   5:      0.001136203
     CP-SCF ITERATION   6:      0.000114502
     CP-SCF ITERATION   7:      0.000016175
     CP-SCF ITERATION   8:      0.000001814
     CP-SCF ITERATION   9:      0.000000412
           ************************************************************
           *              Shut down parallel processing               *
           ************************************************************
done
Reading CP-SCF coefficients                    ... done
Doing the polarizability tensor                ... done
Cleaning up                                    ... done

-------------------------
THE POLARIZABILITY TENSOR
-------------------------

The raw cartesian tensor (atomic units):
  228.90824      0.03911     -0.02657  
    0.03911    226.43445      0.05357  
   -0.02657      0.05357    196.44842  
diagonalized tensor: 
  196.44830    226.43393    228.90888  

    0.00082      0.01579      0.99988  
   -0.00179     -0.99987      0.01579  
    1.00000     -0.00180     -0.00079  

Isotropic polarizability : 217.26371


----------------------------------------------------------------------------
                           ORCA NUMERICAL FREQUENCIES
                              (8-process run)
----------------------------------------------------------------------------

Number of atoms                ... 36
Central differences            ... used
Number of displacements        ... 216
Numerical increment            ...  0.001 bohr
IR-spectrum generation         ... on
Raman-spectrum generation      ... on
Polarizability calculation     ... 1
Surface Crossing Hessian       ... off

The output will be reduced. Please look at the following files:
SCF program output             ... >rhac_bp86.lastscf
Integral program output        ... >rhac_bp86.lastint
Gradient program output        ... >rhac_bp86.lastgrad
Dipole moment program output   ... >rhac_bp86.lastmom


         <<<Energy and Gradient at the input geometry>>>
             <<<Displacing   2/coordinate 1 (+)>>>
             <<<Displacing   1/coordinate 1 (+)>>>
             <<<Displacing   2/coordinate 2 (+)>>>
             <<<Displacing   1/coordinate 1 (-)>>>
             <<<Displacing   2/coordinate 2 (-)>>>
             <<<Displacing   2/coordinate 3 (-)>>>
             <<<Displacing   1/coordinate 2 (-)>>>
             <<<Displacing   3/coordinate 1 (-)>>>
             <<<Displacing   1/coordinate 3 (-)>>>
             <<<Displacing   2/coordinate 1 (-)>>>
             <<<Displacing   3/coordinate 2 (-)>>>
             <<<Displacing   3/coordinate 3 (+)>>>
             <<<Displacing   4/coordinate 1 (+)>>>
             <<<Displacing   4/coordinate 2 (+)>>>
             <<<Displacing   4/coordinate 3 (+)>>>
             <<<Displacing   5/coordinate 1 (+)>>>
             <<<Displacing   5/coordinate 2 (+)>>>
             <<<Displacing   5/coordinate 3 (+)>>>
             <<<Displacing   6/coordinate 1 (+)>>>
             <<<Displacing   3/coordinate 3 (-)>>>
             <<<Displacing   4/coordinate 1 (-)>>>
             <<<Displacing   4/coordinate 2 (-)>>>
             <<<Displacing   5/coordinate 2 (-)>>>
             <<<Displacing   4/coordinate 3 (-)>>>
             <<<Displacing   5/coordinate 1 (-)>>>
             <<<Displacing   5/coordinate 3 (-)>>>
             <<<Displacing   6/coordinate 1 (-)>>>
             <<<Displacing   6/coordinate 2 (+)>>>
             <<<Displacing   6/coordinate 3 (+)>>>
             <<<Displacing   7/coordinate 1 (+)>>>
             <<<Displacing   7/coordinate 2 (+)>>>
             <<<Displacing   7/coordinate 3 (+)>>>
             <<<Displacing   8/coordinate 1 (+)>>>
             <<<Displacing   8/coordinate 2 (+)>>>
             <<<Displacing   8/coordinate 3 (+)>>>
             <<<Displacing   6/coordinate 2 (-)>>>
             <<<Displacing   7/coordinate 3 (-)>>>
             <<<Displacing   6/coordinate 3 (-)>>>
             <<<Displacing   7/coordinate 2 (-)>>>
             <<<Displacing   8/coordinate 1 (-)>>>
             <<<Displacing   8/coordinate 2 (-)>>>
             <<<Displacing   7/coordinate 1 (-)>>>
             <<<Displacing   8/coordinate 3 (-)>>>
             <<<Displacing   9/coordinate 1 (+)>>>
             <<<Displacing   9/coordinate 2 (+)>>>
             <<<Displacing   9/coordinate 3 (+)>>>
             <<<Displacing  10/coordinate 1 (+)>>>
             <<<Displacing  10/coordinate 2 (+)>>>
             <<<Displacing  10/coordinate 3 (+)>>>
             <<<Displacing  11/coordinate 1 (+)>>>
             <<<Displacing  11/coordinate 2 (+)>>>
             <<<Displacing   9/coordinate 1 (-)>>>
             <<<Displacing   9/coordinate 2 (-)>>>
             <<<Displacing   9/coordinate 3 (-)>>>
             <<<Displacing  11/coordinate 1 (-)>>>
             <<<Displacing  10/coordinate 2 (-)>>>
             <<<Displacing  10/coordinate 1 (-)>>>
             <<<Displacing  11/coordinate 2 (-)>>>
             <<<Displacing  10/coordinate 3 (-)>>>
             <<<Displacing  11/coordinate 3 (+)>>>
             <<<Displacing  12/coordinate 1 (+)>>>
             <<<Displacing  12/coordinate 2 (+)>>>
             <<<Displacing  12/coordinate 3 (+)>>>
             <<<Displacing  13/coordinate 1 (+)>>>
             <<<Displacing  13/coordinate 2 (+)>>>
             <<<Displacing  13/coordinate 3 (+)>>>
             <<<Displacing  14/coordinate 1 (+)>>>
             <<<Displacing  12/coordinate 1 (-)>>>
             <<<Displacing  11/coordinate 3 (-)>>>
             <<<Displacing  12/coordinate 2 (-)>>>
             <<<Displacing  13/coordinate 2 (-)>>>
             <<<Displacing  13/coordinate 1 (-)>>>
             <<<Displacing  12/coordinate 3 (-)>>>
             <<<Displacing  14/coordinate 1 (-)>>>
             <<<Displacing  13/coordinate 3 (-)>>>
             <<<Displacing  14/coordinate 2 (+)>>>
             <<<Displacing  14/coordinate 3 (+)>>>
             <<<Displacing  15/coordinate 1 (+)>>>
             <<<Displacing  15/coordinate 2 (+)>>>
             <<<Displacing  15/coordinate 3 (+)>>>
             <<<Displacing  16/coordinate 1 (+)>>>
             <<<Displacing  16/coordinate 2 (+)>>>
             <<<Displacing  16/coordinate 3 (+)>>>
             <<<Displacing  14/coordinate 2 (-)>>>
             <<<Displacing  15/coordinate 1 (-)>>>
             <<<Displacing  15/coordinate 2 (-)>>>
             <<<Displacing  16/coordinate 1 (-)>>>
             <<<Displacing  16/coordinate 2 (-)>>>
             <<<Displacing  14/coordinate 3 (-)>>>
             <<<Displacing  15/coordinate 3 (-)>>>
             <<<Displacing  16/coordinate 3 (-)>>>
             <<<Displacing  17/coordinate 1 (+)>>>
             <<<Displacing  17/coordinate 2 (+)>>>
             <<<Displacing  17/coordinate 3 (+)>>>
             <<<Displacing  18/coordinate 1 (+)>>>
             <<<Displacing  18/coordinate 2 (+)>>>
             <<<Displacing  18/coordinate 3 (+)>>>
             <<<Displacing  19/coordinate 1 (+)>>>
             <<<Displacing  19/coordinate 2 (+)>>>
             <<<Displacing  17/coordinate 1 (-)>>>
             <<<Displacing  17/coordinate 2 (-)>>>
             <<<Displacing  17/coordinate 3 (-)>>>
             <<<Displacing  18/coordinate 1 (-)>>>
             <<<Displacing  18/coordinate 3 (-)>>>
             <<<Displacing  18/coordinate 2 (-)>>>
             <<<Displacing  19/coordinate 1 (-)>>>
             <<<Displacing  19/coordinate 2 (-)>>>
             <<<Displacing  19/coordinate 3 (+)>>>
             <<<Displacing  20/coordinate 1 (+)>>>
             <<<Displacing  20/coordinate 2 (+)>>>
             <<<Displacing  20/coordinate 3 (+)>>>
             <<<Displacing  21/coordinate 1 (+)>>>
             <<<Displacing  21/coordinate 2 (+)>>>
             <<<Displacing  21/coordinate 3 (+)>>>
             <<<Displacing  22/coordinate 1 (+)>>>
             <<<Displacing  19/coordinate 3 (-)>>>
             <<<Displacing  20/coordinate 2 (-)>>>
             <<<Displacing  20/coordinate 1 (-)>>>
             <<<Displacing  21/coordinate 1 (-)>>>
             <<<Displacing  20/coordinate 3 (-)>>>
             <<<Displacing  21/coordinate 2 (-)>>>
             <<<Displacing  22/coordinate 1 (-)>>>
             <<<Displacing  21/coordinate 3 (-)>>>
             <<<Displacing  22/coordinate 2 (+)>>>
             <<<Displacing  22/coordinate 3 (+)>>>
             <<<Displacing  23/coordinate 1 (+)>>>
             <<<Displacing  23/coordinate 2 (+)>>>
             <<<Displacing  23/coordinate 3 (+)>>>
             <<<Displacing  24/coordinate 1 (+)>>>
             <<<Displacing  24/coordinate 2 (+)>>>
             <<<Displacing  24/coordinate 3 (+)>>>
             <<<Displacing  22/coordinate 2 (-)>>>
             <<<Displacing  23/coordinate 2 (-)>>>
             <<<Displacing  23/coordinate 1 (-)>>>
             <<<Displacing  22/coordinate 3 (-)>>>
             <<<Displacing  24/coordinate 1 (-)>>>
             <<<Displacing  23/coordinate 3 (-)>>>
             <<<Displacing  24/coordinate 2 (-)>>>
             <<<Displacing  24/coordinate 3 (-)>>>
             <<<Displacing  25/coordinate 1 (+)>>>
             <<<Displacing  25/coordinate 2 (+)>>>
             <<<Displacing  25/coordinate 3 (+)>>>
             <<<Displacing  26/coordinate 1 (+)>>>
             <<<Displacing  26/coordinate 2 (+)>>>
             <<<Displacing  26/coordinate 3 (+)>>>
             <<<Displacing  27/coordinate 1 (+)>>>
             <<<Displacing  27/coordinate 2 (+)>>>
             <<<Displacing  25/coordinate 1 (-)>>>
             <<<Displacing  25/coordinate 2 (-)>>>
             <<<Displacing  25/coordinate 3 (-)>>>
             <<<Displacing  26/coordinate 1 (-)>>>
             <<<Displacing  26/coordinate 2 (-)>>>
             <<<Displacing  26/coordinate 3 (-)>>>
             <<<Displacing  27/coordinate 1 (-)>>>
             <<<Displacing  27/coordinate 2 (-)>>>
             <<<Displacing  27/coordinate 3 (+)>>>
             <<<Displacing  28/coordinate 1 (+)>>>
             <<<Displacing  28/coordinate 2 (+)>>>
             <<<Displacing  28/coordinate 3 (+)>>>
             <<<Displacing  29/coordinate 1 (+)>>>
             <<<Displacing  29/coordinate 2 (+)>>>
             <<<Displacing  29/coordinate 3 (+)>>>
             <<<Displacing  30/coordinate 1 (+)>>>
             <<<Displacing  27/coordinate 3 (-)>>>
             <<<Displacing  28/coordinate 1 (-)>>>
             <<<Displacing  29/coordinate 1 (-)>>>
             <<<Displacing  28/coordinate 2 (-)>>>
             <<<Displacing  28/coordinate 3 (-)>>>
             <<<Displacing  29/coordinate 2 (-)>>>
             <<<Displacing  29/coordinate 3 (-)>>>
             <<<Displacing  30/coordinate 1 (-)>>>
             <<<Displacing  30/coordinate 2 (+)>>>
             <<<Displacing  30/coordinate 3 (+)>>>
             <<<Displacing  31/coordinate 1 (+)>>>
             <<<Displacing  31/coordinate 2 (+)>>>
             <<<Displacing  31/coordinate 3 (+)>>>
             <<<Displacing  32/coordinate 1 (+)>>>
             <<<Displacing  32/coordinate 2 (+)>>>
             <<<Displacing  32/coordinate 3 (+)>>>
             <<<Displacing  30/coordinate 2 (-)>>>
             <<<Displacing  30/coordinate 3 (-)>>>
             <<<Displacing  31/coordinate 2 (-)>>>
             <<<Displacing  31/coordinate 3 (-)>>>
             <<<Displacing  31/coordinate 1 (-)>>>
             <<<Displacing  32/coordinate 2 (-)>>>
             <<<Displacing  32/coordinate 3 (-)>>>
             <<<Displacing  32/coordinate 1 (-)>>>
             <<<Displacing  33/coordinate 1 (+)>>>
             <<<Displacing  33/coordinate 2 (+)>>>
             <<<Displacing  33/coordinate 3 (+)>>>
             <<<Displacing  34/coordinate 1 (+)>>>
             <<<Displacing  34/coordinate 2 (+)>>>
             <<<Displacing  34/coordinate 3 (+)>>>
             <<<Displacing  35/coordinate 1 (+)>>>
             <<<Displacing  35/coordinate 2 (+)>>>
             <<<Displacing  33/coordinate 1 (-)>>>
             <<<Displacing  33/coordinate 2 (-)>>>
             <<<Displacing  34/coordinate 2 (-)>>>
             <<<Displacing  33/coordinate 3 (-)>>>
             <<<Displacing  34/coordinate 1 (-)>>>
             <<<Displacing  34/coordinate 3 (-)>>>
             <<<Displacing  35/coordinate 2 (-)>>>
             <<<Displacing  35/coordinate 1 (-)>>>
             <<<Displacing  35/coordinate 3 (+)>>>
             <<<Displacing  36/coordinate 1 (+)>>>
             <<<Displacing  36/coordinate 2 (+)>>>
             <<<Displacing  36/coordinate 3 (+)>>>
             <<<Displacing  35/coordinate 3 (-)>>>
             <<<Displacing  36/coordinate 1 (-)>>>
             <<<Displacing  36/coordinate 3 (-)>>>
             <<<Displacing  36/coordinate 2 (-)>>>

-----------------------
VIBRATIONAL FREQUENCIES
-----------------------

   0:         0.00 cm**-1
   1:         0.00 cm**-1
   2:         0.00 cm**-1
   3:         0.00 cm**-1
   4:         0.00 cm**-1
   5:         0.00 cm**-1
   6:      -329.06 cm**-1 ***imaginary mode***
   7:      -222.19 cm**-1 ***imaginary mode***
   8:      -102.15 cm**-1 ***imaginary mode***
   9:       -54.69 cm**-1 ***imaginary mode***
  10:        47.57 cm**-1
  11:        55.05 cm**-1
  12:        63.15 cm**-1
  13:        68.75 cm**-1
  14:        71.44 cm**-1
  15:        89.75 cm**-1
  16:       111.00 cm**-1
  17:       112.18 cm**-1
  18:       152.02 cm**-1
  19:       163.69 cm**-1
  20:       165.63 cm**-1
  21:       199.49 cm**-1
  22:       202.16 cm**-1
  23:       203.47 cm**-1
  24:       209.03 cm**-1
  25:       228.43 cm**-1
  26:       238.58 cm**-1
  27:       241.79 cm**-1
  28:       244.54 cm**-1
  29:       281.03 cm**-1
  30:       303.40 cm**-1
  31:       310.40 cm**-1
  32:       310.43 cm**-1
  33:       315.58 cm**-1
  34:       325.04 cm**-1
  35:       345.16 cm**-1
  36:       348.97 cm**-1
  37:       364.33 cm**-1
  38:       367.95 cm**-1
  39:       372.26 cm**-1
  40:       383.19 cm**-1
  41:       395.52 cm**-1
  42:       465.28 cm**-1
  43:       563.82 cm**-1
  44:       572.33 cm**-1
  45:       574.18 cm**-1
  46:       583.29 cm**-1
  47:       595.97 cm**-1
  48:       606.76 cm**-1
  49:       608.94 cm**-1
  50:       679.95 cm**-1
  51:       689.66 cm**-1
  52:       700.12 cm**-1
  53:       710.33 cm**-1
  54:       761.36 cm**-1
  55:       904.96 cm**-1
  56:       917.17 cm**-1
  57:       930.40 cm**-1
  58:       937.04 cm**-1
  59:       949.40 cm**-1
  60:       957.94 cm**-1
  61:       962.32 cm**-1
  62:      1010.95 cm**-1
  63:      1011.23 cm**-1
  64:      1014.97 cm**-1
  65:      1021.27 cm**-1
  66:      1021.44 cm**-1
  67:      1022.11 cm**-1
  68:      1022.53 cm**-1
  69:      1091.59 cm**-1
  70:      1328.91 cm**-1
  71:      1329.69 cm**-1
  72:      1331.41 cm**-1
  73:      1334.02 cm**-1
  74:      1373.58 cm**-1
  75:      1374.50 cm**-1
  76:      1380.30 cm**-1
  77:      1390.67 cm**-1
  78:      1424.15 cm**-1
  79:      1431.54 cm**-1
  80:      1431.84 cm**-1
  81:      1432.24 cm**-1
  82:      1433.61 cm**-1
  83:      1442.20 cm**-1
  84:      1457.04 cm**-1
  85:      1461.29 cm**-1
  86:      1491.17 cm**-1
  87:      1521.88 cm**-1
  88:      1534.77 cm**-1
  89:      1560.67 cm**-1
  90:      1562.21 cm**-1
  91:      1614.97 cm**-1
  92:      2978.23 cm**-1
  93:      2978.27 cm**-1
  94:      2978.32 cm**-1
  95:      2978.42 cm**-1
  96:      3047.17 cm**-1
  97:      3047.18 cm**-1
  98:      3047.41 cm**-1
  99:      3047.42 cm**-1
 100:      3080.15 cm**-1
 101:      3080.22 cm**-1
 102:      3080.25 cm**-1
 103:      3091.46 cm**-1
 104:      3712.78 cm**-1
 105:      3713.06 cm**-1
 106:      3829.37 cm**-1
 107:      3847.60 cm**-1


------------
NORMAL MODES
------------

These modes are the cartesian displacements weighted by the diagonal matrix
M(i,i)=1/sqrt(m[i]) where m[i] is the mass of the displaced atom
Thus, these vectors are normalized but *not* orthogonal

                  0          1          2          3          4          5    
      0       0.000000   0.000000   0.000000   0.000000   0.000000   0.000000
      1       0.000000   0.000000   0.000000   0.000000   0.000000   0.000000
      2       0.000000   0.000000   0.000000   0.000000   0.000000   0.000000
      3       0.000000   0.000000   0.000000   0.000000   0.000000   0.000000
      4       0.000000   0.000000   0.000000   0.000000   0.000000   0.000000
      5       0.000000   0.000000   0.000000   0.000000   0.000000   0.000000
      6       0.000000   0.000000   0.000000   0.000000   0.000000   0.000000
      7       0.000000   0.000000   0.000000   0.000000   0.000000   0.000000
      8       0.000000   0.000000   0.000000   0.000000   0.000000   0.000000
      9       0.000000   0.000000   0.000000   0.000000   0.000000   0.000000
     10       0.000000   0.000000   0.000000   0.000000   0.000000   0.000000
     11       0.000000   0.000000   0.000000   0.000000   0.000000   0.000000
     12       0.000000   0.000000   0.000000   0.000000   0.000000   0.000000
     13       0.000000   0.000000   0.000000   0.000000   0.000000   0.000000
     14       0.000000   0.000000   0.000000   0.000000   0.000000   0.000000
     15       0.000000   0.000000   0.000000   0.000000   0.000000   0.000000
     16       0.000000   0.000000   0.000000   0.000000   0.000000   0.000000
     17       0.000000   0.000000   0.000000   0.000000   0.000000   0.000000
     18       0.000000   0.000000   0.000000   0.000000   0.000000   0.000000
     19       0.000000   0.000000   0.000000   0.000000   0.000000   0.000000
     20       0.000000   0.000000   0.000000   0.000000   0.000000   0.000000
     21       0.000000   0.000000   0.000000   0.000000   0.000000   0.000000
     22       0.000000   0.000000   0.000000   0.000000   0.000000   0.000000
     23       0.000000   0.000000   0.000000   0.000000   0.000000   0.000000
     24       0.000000   0.000000   0.000000   0.000000   0.000000   0.000000
     25       0.000000   0.000000   0.000000   0.000000   0.000000   0.000000
     26       0.000000   0.000000   0.000000   0.000000   0.000000   0.000000
     27       0.000000   0.000000   0.000000   0.000000   0.000000   0.000000
     28       0.000000   0.000000   0.000000   0.000000   0.000000   0.000000
     29       0.000000   0.000000   0.000000   0.000000   0.000000   0.000000
     30       0.000000   0.000000   0.000000   0.000000   0.000000   0.000000
     31       0.000000   0.000000   0.000000   0.000000   0.000000   0.000000
     32       0.000000   0.000000   0.000000   0.000000   0.000000   0.000000
     33       0.000000   0.000000   0.000000   0.000000   0.000000   0.000000
     34       0.000000   0.000000   0.000000   0.000000   0.000000   0.000000
     35       0.000000   0.000000   0.000000   0.000000   0.000000   0.000000
     36       0.000000   0.000000   0.000000   0.000000   0.000000   0.000000
     37       0.000000   0.000000   0.000000   0.000000   0.000000   0.000000
     38       0.000000   0.000000   0.000000   0.000000   0.000000   0.000000
     39       0.000000   0.000000   0.000000   0.000000   0.000000   0.000000
     40       0.000000   0.000000   0.000000   0.000000   0.000000   0.000000
     41       0.000000   0.000000   0.000000   0.000000   0.000000   0.000000
     42       0.000000   0.000000   0.000000   0.000000   0.000000   0.000000
     43       0.000000   0.000000   0.000000   0.000000   0.000000   0.000000
     44       0.000000   0.000000   0.000000   0.000000   0.000000   0.000000
     45       0.000000   0.000000   0.000000   0.000000   0.000000   0.000000
     46       0.000000   0.000000   0.000000   0.000000   0.000000   0.000000
     47       0.000000   0.000000   0.000000   0.000000   0.000000   0.000000
     48       0.000000   0.000000   0.000000   0.000000   0.000000   0.000000
     49       0.000000   0.000000   0.000000   0.000000   0.000000   0.000000
     50       0.000000   0.000000   0.000000   0.000000   0.000000   0.000000
     51       0.000000   0.000000   0.000000   0.000000   0.000000   0.000000
     52       0.000000   0.000000   0.000000   0.000000   0.000000   0.000000
     53       0.000000   0.000000   0.000000   0.000000   0.000000   0.000000
     54       0.000000   0.000000   0.000000   0.000000   0.000000   0.000000
     55       0.000000   0.000000   0.000000   0.000000   0.000000   0.000000
     56       0.000000   0.000000   0.000000   0.000000   0.000000   0.000000
     57       0.000000   0.000000   0.000000   0.000000   0.000000   0.000000
     58       0.000000   0.000000   0.000000   0.000000   0.000000   0.000000
     59       0.000000   0.000000   0.000000   0.000000   0.000000   0.000000
     60       0.000000   0.000000   0.000000   0.000000   0.000000   0.000000
     61       0.000000   0.000000   0.000000   0.000000   0.000000   0.000000
     62       0.000000   0.000000   0.000000   0.000000   0.000000   0.000000
     63       0.000000   0.000000   0.000000   0.000000   0.000000   0.000000
     64       0.000000   0.000000   0.000000   0.000000   0.000000   0.000000
     65       0.000000   0.000000   0.000000   0.000000   0.000000   0.000000
     66       0.000000   0.000000   0.000000   0.000000   0.000000   0.000000
     67       0.000000   0.000000   0.000000   0.000000   0.000000   0.000000
     68       0.000000   0.000000   0.000000   0.000000   0.000000   0.000000
     69       0.000000   0.000000   0.000000   0.000000   0.000000   0.000000
     70       0.000000   0.000000   0.000000   0.000000   0.000000   0.000000
     71       0.000000   0.000000   0.000000   0.000000   0.000000   0.000000
     72       0.000000   0.000000   0.000000   0.000000   0.000000   0.000000
     73       0.000000   0.000000   0.000000   0.000000   0.000000   0.000000
     74       0.000000   0.000000   0.000000   0.000000   0.000000   0.000000
     75       0.000000   0.000000   0.000000   0.000000   0.000000   0.000000
     76       0.000000   0.000000   0.000000   0.000000   0.000000   0.000000
     77       0.000000   0.000000   0.000000   0.000000   0.000000   0.000000
     78       0.000000   0.000000   0.000000   0.000000   0.000000   0.000000
     79       0.000000   0.000000   0.000000   0.000000   0.000000   0.000000
     80       0.000000   0.000000   0.000000   0.000000   0.000000   0.000000
     81       0.000000   0.000000   0.000000   0.000000   0.000000   0.000000
     82       0.000000   0.000000   0.000000   0.000000   0.000000   0.000000
     83       0.000000   0.000000   0.000000   0.000000   0.000000   0.000000
     84       0.000000   0.000000   0.000000   0.000000   0.000000   0.000000
     85       0.000000   0.000000   0.000000   0.000000   0.000000   0.000000
     86       0.000000   0.000000   0.000000   0.000000   0.000000   0.000000
     87       0.000000   0.000000   0.000000   0.000000   0.000000   0.000000
     88       0.000000   0.000000   0.000000   0.000000   0.000000   0.000000
     89       0.000000   0.000000   0.000000   0.000000   0.000000   0.000000
     90       0.000000   0.000000   0.000000   0.000000   0.000000   0.000000
     91       0.000000   0.000000   0.000000   0.000000   0.000000   0.000000
     92       0.000000   0.000000   0.000000   0.000000   0.000000   0.000000
     93       0.000000   0.000000   0.000000   0.000000   0.000000   0.000000
     94       0.000000   0.000000   0.000000   0.000000   0.000000   0.000000
     95       0.000000   0.000000   0.000000   0.000000   0.000000   0.000000
     96       0.000000   0.000000   0.000000   0.000000   0.000000   0.000000
     97       0.000000   0.000000   0.000000   0.000000   0.000000   0.000000
     98       0.000000   0.000000   0.000000   0.000000   0.000000   0.000000
     99       0.000000   0.000000   0.000000   0.000000   0.000000   0.000000
    100       0.000000   0.000000   0.000000   0.000000   0.000000   0.000000
    101       0.000000   0.000000   0.000000   0.000000   0.000000   0.000000
    102       0.000000   0.000000   0.000000   0.000000   0.000000   0.000000
    103       0.000000   0.000000   0.000000   0.000000   0.000000   0.000000
    104       0.000000   0.000000   0.000000   0.000000   0.000000   0.000000
    105       0.000000   0.000000   0.000000   0.000000   0.000000   0.000000
    106       0.000000   0.000000   0.000000   0.000000   0.000000   0.000000
    107       0.000000   0.000000   0.000000   0.000000   0.000000   0.000000
                  6          7          8          9         10         11    
      0      -0.001681   0.012616  -0.000433   0.002715  -0.003698   0.030440
      1      -0.003214   0.000072   0.020702  -0.009870   0.000266   0.000193
      2      -0.004427   0.000055  -0.044791  -0.057215  -0.002988   0.000078
      3      -0.001409   0.013509   0.000345   0.002143  -0.009939   0.077766
      4      -0.003010   0.000071   0.020793  -0.010631   0.000084   0.001944
      5      -0.006050  -0.000515  -0.056780  -0.082916  -0.031870  -0.001489
      6       0.000024   0.010568  -0.000173   0.000038   0.000292   0.007111
      7      -0.001431   0.000046   0.025713  -0.021891  -0.000351   0.006881
      8      -0.000292   0.031562  -0.002710  -0.005312   0.007543  -0.050342
      9      -0.000101   0.010808  -0.000490   0.000705   0.000283   0.007408
     10       0.000799  -0.000687   0.033370  -0.040812  -0.000104   0.004539
     11      -0.000127   0.049930  -0.003758  -0.007854   0.010426  -0.082598
     12      -0.001435   0.013718   0.000364   0.002202  -0.010634   0.088393
     13      -0.003037   0.000668   0.021078  -0.011046  -0.004347   0.036522
     14      -0.007405  -0.012333  -0.117633  -0.274305  -0.641695  -0.035730
     15      -0.001299   0.003585  -0.040454  -0.139317  -0.499204   0.064180
     16      -0.001912  -0.000030   0.030417   0.008491   0.015751  -0.013063
     17      -0.006758   0.004790  -0.041726  -0.020468   0.216223   0.012099
     18      -0.001435   0.024029   0.041256   0.142997   0.475102   0.117917
     19      -0.005563  -0.000376   0.010092  -0.029238  -0.011276  -0.014589
     20      -0.007389   0.004853  -0.042277  -0.020255   0.217294   0.012276
     21      -0.002249   0.010820  -0.006147   0.014247   0.000081   0.008961
     22       0.001408  -0.000651   0.035092  -0.044934  -0.000037   0.004053
     23      -0.000394   0.032557  -0.003517  -0.005353   0.005668  -0.040709
     24       0.000622   0.000397   0.002678  -0.003821  -0.001797   0.026617
     25       0.001684   0.015355   0.036174  -0.047523   0.004608  -0.036376
     26       0.000070   0.062828  -0.003661  -0.009331   0.013804  -0.112452
     27       0.001351   0.019987   0.001642  -0.007295   0.002575  -0.014103
     28       0.002042  -0.016622   0.035210  -0.044658  -0.004653   0.044467
     29      -0.000128   0.062124  -0.003696  -0.009262   0.013811  -0.112926
     30      -0.002341   0.025489  -0.001096   0.004047   0.006640   0.005359
     31      -0.005755   0.000115   0.008252  -0.029534  -0.002323  -0.000187
     32      -0.001853   0.000146  -0.035609  -0.043296  -0.000738   0.000075
     33      -0.000583  -0.000907  -0.000075   0.000843  -0.009715   0.022306
     34      -0.001101   0.000033   0.034347   0.008389   0.002948   0.000023
     35      -0.002031   0.000168  -0.032055  -0.042007  -0.000621   0.000062
     36      -0.000038   0.025077  -0.000617  -0.001173   0.001297  -0.009026
     37      -0.006809   0.000467   0.012756  -0.027632  -0.002756   0.006782
     38      -0.000250   0.025552  -0.002212  -0.004390   0.006838  -0.044160
     39       0.000054   0.025209   0.000190   0.000653  -0.002875  -0.009966
     40      -0.004687  -0.000035   0.015282  -0.032426   0.012071  -0.007375
     41      -0.000188  -0.025585  -0.001814  -0.003271   0.010990   0.045970
     42      -0.000022  -0.234530   0.000568  -0.001791  -0.000108  -0.004698
     43       0.126984  -0.001221  -0.102622   0.358382  -0.025269  -0.001884
     44      -0.000304   0.000302  -0.000905  -0.000882   0.004817  -0.001276
     45       0.000006   0.023152  -0.000142  -0.000099  -0.000438   0.000940
     46      -0.005164   0.000223   0.008398  -0.018989   0.002275  -0.000146
     47      -0.000120   0.000053  -0.000566  -0.000823   0.002746   0.000031
     48       0.000005   0.001125   0.000039   0.000063   0.000742   0.016328
     49       0.001016  -0.000092   0.028264   0.003588  -0.002337  -0.000000
     50      -0.000077   0.000055  -0.000742  -0.001047   0.002693  -0.000003
     51       0.002393   0.028869   0.000569  -0.004551  -0.007245   0.020806
     52      -0.005551   0.000316   0.004290  -0.036181   0.008526   0.000028
     53       0.002994  -0.000259   0.038587   0.050870  -0.016042  -0.000897
     54       0.000020  -0.002224   0.000451   0.001173  -0.000770   0.025989
     55       0.002267   0.000164   0.034148  -0.003042   0.002149   0.008405
     56      -0.000249   0.026387  -0.002224  -0.004376   0.006796  -0.042571
     57      -0.000012   0.010563  -0.000103   0.000139   0.000178   0.007075
     58      -0.002144   0.000122   0.025932  -0.023969   0.003791  -0.006865
     59      -0.000203  -0.031659  -0.002039  -0.003735   0.012628   0.052616
     60       0.000770   0.002382   0.000456  -0.001317   0.008023   0.040760
     61      -0.001063  -0.000192   0.038809   0.015527  -0.008125  -0.000264
     62       0.002683  -0.000235   0.036979   0.051777  -0.016122  -0.000790
     63      -0.000027  -0.002401  -0.000388  -0.000734   0.003214   0.026856
     64      -0.000164  -0.000248   0.032094  -0.001368  -0.008419  -0.008044
     65      -0.000198  -0.026404  -0.001789  -0.003287   0.011016   0.044369
     66       0.000018  -0.028289   0.000278   0.000708   0.009337  -0.334926
     67       0.003358  -0.000319  -0.394113  -0.054398   0.011670   0.001084
     68      -0.000002   0.000320  -0.000293  -0.000914   0.004770  -0.001208
     69       0.001243   0.011179   0.000442  -0.002173   0.000278   0.023931
     70      -0.003331   0.000024   0.020909  -0.009744   0.000182  -0.000118
     71       0.005348  -0.000344   0.053443   0.072768  -0.023276  -0.001128
     72      -0.000018   0.010766  -0.000340   0.000825  -0.000026   0.007151
     73      -0.002413   0.000513   0.033254  -0.042515   0.009236  -0.004527
     74      -0.000188  -0.049979  -0.002227  -0.004675   0.018757   0.086151
     75       0.001514   0.011612   0.000939  -0.001776   0.000182   0.034616
     76      -0.003106   0.000051   0.021190  -0.010020   0.000196   0.000214
     77       0.006150  -0.000193   0.071468   0.106552  -0.035816  -0.001996
     78       0.001498   0.012068   0.000905  -0.001560   0.000112   0.037716
     79      -0.003256   0.001416   0.021316  -0.009330   0.000037   0.010055
     80       0.004135   0.003308   0.037537   0.053444  -0.017236  -0.001337
     81      -0.000926   0.016209  -0.030146  -0.051479   0.017855   0.038532
     82      -0.004352  -0.000377   0.010027  -0.031562   0.008697  -0.003670
     83       0.007920  -0.002475   0.092600   0.141929  -0.048714  -0.002322
     84       0.003625   0.008144   0.031953   0.048628  -0.017580   0.038160
     85      -0.002956  -0.000755   0.031728   0.011035  -0.008196  -0.004833
     86       0.007267  -0.002456   0.092169   0.142158  -0.048804  -0.002321
     87      -0.000063   0.010041  -0.005576   0.013744  -0.003955   0.004786
     88      -0.002416   0.000772   0.034873  -0.046471   0.010460  -0.003775
     89       0.000295  -0.032553   0.000261  -0.000973   0.009063   0.042376
     90       0.000034   0.020208   0.002420  -0.004139  -0.002623  -0.013421
     91      -0.002665  -0.015152   0.032323  -0.051712   0.020423   0.038711
     92      -0.000347  -0.062143  -0.003994  -0.007364   0.025785   0.117810
     93      -0.000023   0.000746   0.001779  -0.006007   0.006146   0.028965
     94      -0.001925   0.016845   0.038417  -0.043225   0.001044  -0.045741
     95      -0.000454  -0.062827  -0.004005  -0.007405   0.025776   0.117219
     96       0.000027  -0.034740   0.000468   0.000783   0.013609  -0.541126
     97       0.005341  -0.000439  -0.592147  -0.080259   0.017353   0.001477
     98       0.000036  -0.008583   0.000429  -0.000738   0.010693  -0.285224
     99       0.000043  -0.034674   0.000212   0.000709   0.013674  -0.541786
    100       0.005395  -0.000482  -0.592154  -0.080350   0.017165   0.002302
    101      -0.000042   0.009214   0.002941  -0.000492  -0.001231   0.282311
    102       0.002375  -0.539721   0.001251  -0.003154   0.000153   0.000460
    103      -0.989060  -0.003099  -0.219590   0.772643  -0.055351  -0.003913
    104       0.005642  -0.401806   0.000304  -0.003681   0.005294   0.006085
    105      -0.001885  -0.540439   0.000349  -0.000085  -0.000070   0.000339
    106      -0.068416   0.001647  -0.053571   0.181393  -0.012542  -0.000903
    107       0.005528   0.401839  -0.001341  -0.000497   0.004596  -0.008677
                 12         13         14         15         16         17    
      0       0.111528  -0.005838  -0.000394   0.030862   0.002486   0.057730
      1       0.000551   0.003828   0.041044   0.001162   0.001697  -0.002095
      2      -0.001013   0.000161   0.002156  -0.001222   0.121993  -0.005132
      3       0.276945  -0.016777  -0.001998   0.230757   0.000319  -0.126700
      4       0.006572   0.003656   0.041462   0.008776   0.002592  -0.009499
      5      -0.003092   0.009289   0.007350  -0.001956   0.154776  -0.005996
      6      -0.014136   0.001031   0.001022  -0.039067  -0.000546  -0.002159
      7       0.073172  -0.012093  -0.081655  -0.014160  -0.002475  -0.068018
      8       0.005883  -0.008980   0.001859   0.009505  -0.108171  -0.000983
      9      -0.019831   0.002310   0.008796  -0.036204  -0.000628  -0.008153
     10       0.217341  -0.040788  -0.286050  -0.102273  -0.001013   0.084066
     11       0.009439  -0.027984   0.003170   0.014503  -0.190843   0.000630
     12       0.313765  -0.019558  -0.002493   0.276657   0.000072  -0.170681
     13       0.126724  -0.004470   0.039872   0.158536   0.000762  -0.152351
     14      -0.046761   0.185444  -0.004017  -0.009460  -0.076865   0.007347
     15       0.287895   0.108704  -0.013371   0.282543  -0.215144  -0.170121
     16      -0.047301   0.000412   0.038454  -0.058837  -0.033820   0.056583
     17       0.014695  -0.052954   0.014889   0.000464   0.289868  -0.012361
     18       0.357937  -0.148103   0.008383   0.294141   0.214060  -0.193594
     19      -0.049245   0.014153   0.045747  -0.059965   0.041105   0.054191
     20       0.014974  -0.053464   0.014947   0.001141   0.290710  -0.013486
     21      -0.124692   0.023376   0.158926   0.030316  -0.001755  -0.126579
     22       0.249353  -0.047114  -0.331912  -0.122632  -0.000688   0.120384
     23       0.004676  -0.020913   0.002107   0.006545  -0.084992   0.000674
     24       0.025868   0.002657  -0.060728  -0.069719   0.061248   0.044611
     25       0.262419  -0.046229  -0.342890  -0.120328  -0.108275   0.130469
     26       0.013033  -0.029523   0.003842   0.019743  -0.274353   0.001851
     27       0.030468  -0.017333  -0.058486  -0.063107  -0.061513   0.046955
     28       0.252872  -0.051670  -0.344513  -0.135495   0.107188   0.129727
     29       0.012959  -0.029634   0.004254   0.020065  -0.274304   0.000950
     30       0.059685   0.336949  -0.008522  -0.035032  -0.001334   0.116387
     31      -0.000880   0.007368   0.043617  -0.000486   0.032383  -0.002318
     32      -0.000461   0.002142   0.001346  -0.000764   0.098098  -0.004148
     33       0.047762  -0.341156   0.008407  -0.036758   0.007602   0.113467
     34      -0.000108   0.000450   0.039097   0.000153  -0.028808   0.000224
     35      -0.000592   0.002130   0.001585  -0.001005   0.092857  -0.003607
     36      -0.012105  -0.003308   0.000020  -0.037222  -0.033486  -0.001661
     37       0.018120  -0.330411  -0.000023   0.014433   0.011358  -0.115727
     38       0.005463  -0.005281   0.001731   0.008555  -0.089297  -0.000841
     39      -0.011985   0.004981  -0.000972  -0.038407   0.032463  -0.002261
     40      -0.016962   0.333985  -0.014040  -0.017120   0.009565   0.115356
     41      -0.003982  -0.008443   0.001583  -0.006062  -0.084505   0.005579
     42      -0.000519  -0.000035   0.000187  -0.000327  -0.000089  -0.002717
     43      -0.004629   0.001644  -0.037484   0.000840  -0.031697   0.000619
     44       0.002272   0.005606   0.000314  -0.000980   0.013830   0.002546
     45      -0.011839   0.000448  -0.000589  -0.031325  -0.000014  -0.003909
     46      -0.000075   0.004033   0.033503  -0.000406   0.004529  -0.000452
     47       0.000452   0.002187   0.000323   0.000049   0.002027  -0.000139
     48      -0.013367   0.001174  -0.000307  -0.032812  -0.001296  -0.004599
     49      -0.000819   0.003125   0.041596  -0.000286  -0.003561  -0.000463
     50       0.000469   0.002190   0.000324  -0.000056   0.002475   0.000587
     51      -0.068018  -0.340510   0.005360   0.063586   0.006232  -0.145713
     52       0.000972   0.003243   0.045881  -0.000066  -0.028658   0.001560
     53      -0.002002   0.014018  -0.004579  -0.001550   0.075433  -0.002888
     54      -0.015570   0.005125  -0.000667  -0.042702   0.032167  -0.002328
     55       0.026827   0.326020  -0.022392   0.015928  -0.017034  -0.115573
     56       0.005190  -0.004905   0.001521   0.007812  -0.089335  -0.000982
     57      -0.012430   0.000948   0.001042  -0.040205  -0.000618   0.000303
     58      -0.071715  -0.004971  -0.082591   0.010814   0.001535   0.068629
     59      -0.004501  -0.013988   0.002113  -0.006492  -0.103213   0.006672
     60      -0.059829   0.345042  -0.010391   0.064225  -0.014039  -0.148651
     61      -0.001599   0.004579   0.036833  -0.000562   0.030476  -0.001397
     62      -0.002253   0.013728  -0.004978  -0.000777   0.075831  -0.002531
     63      -0.015652  -0.003083   0.000320  -0.041939  -0.033770  -0.000116
     64      -0.027837  -0.334704  -0.006644  -0.017726  -0.002010   0.115379
     65      -0.003557  -0.008790   0.001791  -0.005429  -0.084404   0.006198
     66       0.034500  -0.002449  -0.000274   0.045905   0.000749  -0.018787
     67       0.001242  -0.000948  -0.010559   0.000397   0.020180  -0.000596
     68       0.001991   0.005613   0.000305  -0.000579   0.012359   0.001666
     69      -0.050258   0.001819  -0.002041   0.082781  -0.000554  -0.048463
     70      -0.000253   0.003870   0.041022   0.000758   0.001303   0.002009
     71      -0.003202   0.016230  -0.007105  -0.001613   0.103442  -0.003846
     72      -0.007254   0.001660   0.009028  -0.044150  -0.000356   0.006897
     73      -0.212729  -0.018612  -0.292459   0.093675  -0.005784  -0.081632
     74      -0.007699  -0.031215   0.003337  -0.009613  -0.186234   0.009594
     75      -0.076040   0.002668  -0.003970   0.287781   0.011976   0.275445
     76      -0.001058   0.004108   0.041416   0.008309   0.001819   0.014936
     77      -0.004969   0.002317  -0.018069  -0.001933   0.157287  -0.006385
     78      -0.083123   0.003067  -0.004638   0.338033   0.015084   0.352363
     79      -0.023594   0.004815   0.039370   0.171400   0.011567   0.265781
     80      -0.002598  -0.006645  -0.008193  -0.000503   0.070084  -0.001761
     81      -0.082256  -0.014612   0.006054   0.351477  -0.069188   0.377223
     82       0.010305   0.009986   0.049590  -0.065449  -0.041042  -0.097178
     83      -0.006610   0.010365  -0.026890  -0.003018   0.218547  -0.010507
     84      -0.086540   0.020903  -0.015318   0.348769   0.100377   0.368165
     85       0.008048  -0.002427   0.034945  -0.066100   0.035922  -0.100971
     86      -0.006490   0.010104  -0.026891  -0.002463   0.218866  -0.008564
     87       0.096074   0.011800   0.163263  -0.105597   0.005484   0.124580
     88      -0.244346  -0.021283  -0.339582   0.112498  -0.007603  -0.117740
     89      -0.003808  -0.022186   0.001299  -0.004531  -0.085829   0.004438
     90      -0.052312   0.006111  -0.061897  -0.014185   0.058096  -0.048546
     91      -0.255831  -0.020869  -0.350061   0.112510  -0.110064  -0.122034
     92      -0.010515  -0.032848   0.004231  -0.012844  -0.266620   0.012645
     93      -0.056056  -0.012120  -0.060597  -0.018100  -0.064044  -0.044087
     94      -0.248714  -0.023895  -0.353360   0.122041   0.094100  -0.132047
     95      -0.010172  -0.032860   0.004670  -0.013059  -0.266468   0.013748
     96       0.060731  -0.005291  -0.000592   0.089305   0.002649  -0.029247
     97       0.001191  -0.000368  -0.014164   0.000965   0.030528  -0.001101
     98       0.038178   0.002079  -0.000143   0.058958   0.014933  -0.012643
     99       0.060969  -0.004914  -0.000620   0.089403   0.000714  -0.029101
    100       0.002443  -0.001266  -0.014084   0.000262   0.030760  -0.000641
    101      -0.034134   0.009321   0.000830  -0.060068   0.012228   0.015955
    102       0.001120  -0.000107   0.000445   0.009180   0.000840  -0.006509
    103      -0.013978   0.007558  -0.099650   0.003045  -0.062918  -0.000257
    104       0.004693   0.005769   0.000788   0.011930   0.015182  -0.002300
    105       0.001192   0.000327   0.000001   0.009218  -0.001481  -0.006368
    106      -0.003566   0.000564  -0.018855   0.000886  -0.015132  -0.000167
    107       0.000038   0.005554   0.000268  -0.013976   0.015457   0.007490
                 18         19         20         21         22         23    
      0      -0.005977   0.000357   0.000020  -0.000902  -0.000346   0.003789
      1       0.000669  -0.000770   0.001485   0.000155  -0.014671   0.000232
      2       0.014076  -0.137699   0.105987   0.009217   0.001425   0.019287
      3       0.003838   0.000648   0.000129   0.000566   0.000759  -0.002218
      4       0.001236  -0.002291   0.002406   0.000073  -0.016434   0.000108
      5       0.018857  -0.022114   0.158725   0.019056   0.005064   0.080498
      6      -0.001684  -0.000438  -0.000106  -0.000286  -0.015260   0.001782
      7       0.001654   0.004202  -0.003526  -0.000362  -0.001146   0.007658
      8      -0.178743   0.027054   0.048917  -0.007711  -0.000224  -0.006693
      9      -0.001597   0.000091  -0.000470  -0.000130  -0.016821   0.002659
     10      -0.004546  -0.007798   0.004446   0.000200   0.000366  -0.007706
     11      -0.054177   0.097762   0.145711   0.039040   0.002393   0.107318
     12       0.006262   0.000061   0.000391   0.001104   0.000695  -0.003753
     13       0.009032  -0.003394   0.002665   0.001258  -0.016722  -0.004818
     14       0.052162  -0.019439   0.073601   0.040127   0.003499   0.070316
     15       0.019482  -0.015685  -0.102081   0.001472  -0.002138  -0.037568
     16      -0.007158  -0.072290  -0.053428  -0.009558  -0.020599  -0.053955
     17       0.016251   0.016496   0.243378   0.024731   0.008503   0.126029
     18      -0.005791   0.015371   0.102474   0.000511   0.003449   0.029195
     19       0.002639   0.067973   0.058308   0.008636  -0.013928   0.058790
     20       0.016282   0.015568   0.243996   0.024874   0.007909   0.126124
     21       0.003409   0.010675  -0.007270  -0.000613  -0.019305   0.015916
     22      -0.006118  -0.011065   0.006567   0.000361   0.001116  -0.011774
     23      -0.032861   0.049321   0.051644   0.020093   0.000437   0.016361
     24      -0.076077  -0.057186  -0.072810  -0.036368  -0.018820  -0.096434
     25      -0.004231   0.034334   0.111825   0.014763   0.003872   0.096424
     26      -0.021338   0.143913   0.234468   0.061449   0.005045   0.206114
     27       0.068736   0.047714   0.077935   0.036520  -0.014567   0.089984
     28      -0.008569  -0.058303  -0.097742  -0.014222  -0.001091  -0.122230
     29      -0.021054   0.144120   0.234229   0.061214   0.004257   0.206261
     30       0.327152  -0.019339  -0.012573   0.334308  -0.001727  -0.020647
     31       0.007642   0.082967   0.019208   0.010380  -0.008587   0.026153
     32       0.011231  -0.171160   0.090208   0.003289  -0.003576  -0.000674
     33      -0.344784   0.019002   0.012867  -0.336783   0.000347   0.030425
     34      -0.006500  -0.077709  -0.017662  -0.009633  -0.011215  -0.025014
     35       0.010640  -0.155417   0.083919   0.003489   0.003841   0.000401
     36       0.097980   0.015734   0.026181   0.010039  -0.008532   0.039024
     37      -0.001428   0.310107  -0.056658   0.351443  -0.005112  -0.019924
     38      -0.229078   0.018256   0.037680  -0.017088  -0.005117  -0.031121
     39       0.082359  -0.021143  -0.035280  -0.009612   0.008022  -0.038565
     40       0.001669   0.324052  -0.037173  -0.330783   0.000143   0.024314
     41       0.245266   0.014932   0.011758  -0.015634  -0.005252  -0.034465
     42      -0.003772  -0.000017   0.000024   0.000069   0.000130   0.000329
     43      -0.001746  -0.052087  -0.005038  -0.006097   0.000324  -0.005632
     44      -0.042428  -0.093763  -0.195238   0.069173  -0.391682   0.275815
     45       0.113135  -0.004319  -0.005974   0.000531  -0.000023   0.000330
     46       0.001508   0.104440  -0.015728   0.002641  -0.000429   0.000073
     47      -0.008783  -0.024209  -0.043330  -0.018144  -0.030821  -0.062422
     48      -0.118752   0.003975   0.006048  -0.000687  -0.000108   0.000214
     49      -0.001537  -0.111502   0.017001  -0.002105   0.000440  -0.000416
     50      -0.008798  -0.023912  -0.043137  -0.017791   0.027468  -0.063431
     51       0.329742  -0.000121  -0.021671  -0.329655   0.003399   0.019989
     52      -0.006147   0.042892  -0.049433  -0.010761   0.008631  -0.039851
     53       0.000534   0.186938  -0.002237   0.000988  -0.004613  -0.034896
     54      -0.102527  -0.016443  -0.026363  -0.010465  -0.010426  -0.036234
     55       0.008252  -0.294544   0.045259  -0.352162   0.002500   0.041446
     56      -0.229749   0.018048   0.037790  -0.016981   0.003487  -0.031428
     57      -0.001819   0.000397  -0.000141  -0.000089   0.014687   0.000592
     58      -0.002084   0.005406   0.001216   0.002007   0.001064  -0.007160
     59       0.202287   0.022556   0.028372  -0.008131  -0.000376  -0.009223
     60      -0.336968   0.002630   0.023055   0.333140   0.000777  -0.040356
     61       0.006972  -0.033605   0.048959   0.011514   0.011088   0.040565
     62       0.000656   0.185258  -0.001670   0.001080   0.002109  -0.034997
     63      -0.086923   0.021145   0.035137   0.009393   0.009914   0.039926
     64      -0.007838  -0.304673   0.042407   0.336536   0.002359  -0.043371
     65       0.245906   0.015062   0.011715  -0.015666   0.003311  -0.034624
     66       0.071310  -0.001913  -0.001605   0.000316  -0.000029  -0.001490
     67       0.000499   0.059377  -0.000367   0.000651   0.000497   0.004168
     68      -0.042916  -0.085819  -0.198316   0.072154   0.404325   0.259319
     69      -0.002770   0.000948   0.000407   0.001108   0.001170  -0.006029
     70       0.000453   0.002765   0.000350   0.000356   0.014431   0.000399
     71       0.005821   0.198817   0.020639   0.004468  -0.000766  -0.017136
     72      -0.002187   0.001311   0.000105   0.000276   0.016194   0.000105
     73       0.001384  -0.010358  -0.004489  -0.001728  -0.000535   0.004927
     74       0.121593   0.073180   0.135213   0.039969   0.002728   0.111178
     75      -0.003829   0.000447   0.000242  -0.000361  -0.001404   0.003686
     76       0.000468   0.003161   0.000353   0.000119   0.016099   0.000922
     77       0.038138   0.177569   0.152282   0.030888   0.002769   0.115105
     78      -0.004291   0.000189   0.000465  -0.000412  -0.001708   0.006222
     79      -0.000316   0.002241   0.000576  -0.001187   0.015179   0.008888
     80       0.025556   0.069321   0.050396  -0.004966   0.000241   0.018827
     81      -0.009895  -0.094826  -0.116855  -0.051606  -0.004851  -0.108670
     82      -0.022064   0.004127  -0.097078  -0.021658   0.014694  -0.108369
     83       0.049672   0.227641   0.256580   0.068882   0.005305   0.221940
     84       0.001453   0.094732   0.117318   0.049737   0.001248   0.122071
     85       0.023702   0.003200   0.097617   0.023044   0.020271   0.102921
     86       0.049841   0.227505   0.257021   0.069039   0.005885   0.222360
     87      -0.004774   0.016038   0.004514   0.003416   0.018712  -0.010406
     88       0.002079  -0.014495  -0.005868  -0.002858  -0.001292   0.008205
     89       0.058483   0.014573   0.048265   0.020222   0.000485   0.015371
     90       0.038769  -0.045010  -0.082058  -0.038826   0.013499  -0.093481
     91       0.045806   0.057064   0.090751   0.013042   0.001140   0.124490
     92       0.126800   0.130281   0.221570   0.064006   0.004889   0.215669
     93      -0.040343   0.034539   0.078339   0.036463   0.018568   0.103168
     94      -0.040951  -0.089021  -0.103221  -0.019423  -0.004307  -0.106422
     95       0.127040   0.130681   0.221502   0.063752   0.005664   0.215425
     96       0.158174  -0.008858  -0.010376   0.002028   0.009084   0.007350
     97       0.000790   0.085408   0.000116   0.010923   0.000754   0.004838
     98       0.076354  -0.095341  -0.210230   0.075198   0.417724   0.272608
     99       0.160003  -0.004116   0.001037  -0.002422  -0.008371  -0.011337
    100       0.000708   0.085944   0.000254  -0.009691   0.000669   0.007168
    101      -0.165158  -0.083164  -0.201784   0.076771   0.416622   0.273901
    102      -0.042464  -0.000062  -0.004255   0.002764  -0.008100   0.010108
    103      -0.004275  -0.180081   0.001002  -0.055746  -0.001197  -0.006044
    104      -0.096166  -0.093432  -0.200966   0.073625  -0.403843   0.290423
    105      -0.041038   0.004172   0.007029  -0.001850   0.008386  -0.009304
    106      -0.000820  -0.024119  -0.002426  -0.019465   0.000162  -0.000976
    107       0.008186  -0.099870  -0.204723   0.072806  -0.403809   0.290119
                 24         25         26         27         28         29    
      0       0.083839  -0.001411   0.246719   0.004223   0.008982   0.000318
      1      -0.004008   0.000225  -0.001311   0.010442  -0.106848   0.002727
      2       0.000868   0.003235  -0.002066   0.063471   0.007979  -0.083123
      3      -0.047125   0.001573  -0.126956  -0.002895   0.000472  -0.000454
      4      -0.010309   0.000403  -0.019342   0.012798  -0.121753   0.002424
      5      -0.001009   0.006118   0.007883  -0.155982  -0.021717   0.100915
      6       0.032337   0.000479  -0.111054  -0.002021  -0.002060   0.000195
      7       0.158291  -0.001663   0.024317  -0.011330   0.199256  -0.003045
      8      -0.000321  -0.087206  -0.000455   0.016515   0.002380   0.086344
      9       0.047988   0.000470  -0.124278  -0.003013   0.012419   0.000116
     10      -0.115814   0.001286  -0.008763   0.003408  -0.100279  -0.001290
     11      -0.003743   0.156086   0.003840  -0.023269  -0.003000  -0.072034
     12      -0.082057   0.002422  -0.233122  -0.004806  -0.003004  -0.000697
     13      -0.123099   0.003152  -0.361488   0.006602  -0.133220   0.001910
     14      -0.002463  -0.004341   0.008067  -0.165332  -0.027328   0.127316
     15      -0.091926  -0.004541  -0.265854   0.060088   0.002231  -0.041469
     16       0.042123  -0.004419   0.126574   0.192361  -0.095233  -0.155051
     17      -0.000672   0.011272   0.016744  -0.274564  -0.035544   0.195950
     18      -0.090700   0.009842  -0.259255  -0.070297  -0.008810   0.039627
     19       0.039103   0.002783   0.143286  -0.160613  -0.143037   0.160398
     20      -0.002011   0.011368   0.010338  -0.274548  -0.036423   0.195766
     21       0.285395  -0.002311  -0.097548  -0.016614   0.290253  -0.001318
     22      -0.189223   0.002200  -0.017148   0.007608  -0.186343  -0.000867
     23       0.000270  -0.011376  -0.001181   0.007842  -0.000124   0.087004
     24      -0.055807  -0.187809  -0.142338   0.035690  -0.108063   0.144514
     25      -0.213333   0.209404  -0.014641  -0.032071  -0.214751  -0.191351
     26      -0.009090   0.349213   0.008336  -0.059480  -0.009940  -0.236573
     27      -0.061432   0.191191  -0.135321  -0.029532  -0.117446  -0.142943
     28      -0.204220  -0.204835  -0.025864   0.049685  -0.206747   0.190138
     29      -0.005468   0.348877   0.008113  -0.059783  -0.004405  -0.236401
     30       0.107164  -0.109768   0.300391   0.009497   0.007059   0.001592
     31      -0.004359  -0.000659   0.004777  -0.064801  -0.102546   0.055560
     32       0.001953   0.002821  -0.004343   0.094848   0.006616  -0.109379
     33       0.105951   0.106039   0.299735   0.001746   0.009476  -0.000995
     34      -0.001408   0.000927  -0.001121   0.080973  -0.085940  -0.047822
     35       0.002264   0.002546  -0.002037   0.085930   0.014668  -0.099867
     36       0.024607   0.073631  -0.095930  -0.013302  -0.005474  -0.025899
     37       0.213379  -0.000370   0.028011   0.078325   0.233305  -0.050255
     38       0.003713  -0.121982  -0.007640   0.021434   0.003782   0.100330
     39       0.023136   0.072603  -0.098734   0.007638  -0.001584   0.029470
     40      -0.211180   0.001435  -0.045713   0.078611   0.233946  -0.055463
     41       0.002933   0.120013   0.006298   0.019451   0.004100   0.100775
     42      -0.000971  -0.004192  -0.000186   0.000229  -0.000386   0.000569
     43      -0.002212   0.002561  -0.000634  -0.003005   0.001733  -0.008036
     44      -0.026578   0.004011   0.000336  -0.008953  -0.002259   0.012467
     45       0.005667   0.004731  -0.018884  -0.002360  -0.003913   0.001031
     46      -0.000522  -0.002094   0.003004  -0.005619  -0.015091   0.020182
     47       0.003241  -0.000570  -0.000720   0.012175   0.001902  -0.012948
     48       0.006625  -0.003303  -0.021017   0.002184  -0.003672  -0.000987
     49      -0.000467   0.002610   0.004798   0.006872  -0.026353  -0.024606
     50       0.003403  -0.000578  -0.000414   0.012585   0.002007  -0.012999
     51      -0.239161  -0.107963   0.192211   0.005341   0.006048  -0.003701
     52       0.004016  -0.001214   0.008037  -0.059367  -0.102758   0.002959
     53       0.001590  -0.001772   0.006047  -0.150782  -0.017874  -0.053782
     54       0.029639  -0.072563  -0.100862   0.009838  -0.003314   0.026450
     55       0.206369  -0.003888   0.031626  -0.105144   0.245267   0.044043
     56       0.000674  -0.121879   0.001546   0.021703   0.002073   0.100322
     57       0.021530   0.000645  -0.113827  -0.002195  -0.002108  -0.000284
     58      -0.155336  -0.000279  -0.039895  -0.012307   0.199110  -0.003122
     59       0.002193   0.085999  -0.000791   0.014261   0.003447   0.085182
     60      -0.229346   0.107799   0.191792   0.001997   0.008207   0.004594
     61      -0.000205   0.001245   0.002739   0.072004  -0.085769   0.015102
     62       0.002048  -0.001760   0.005940  -0.149653  -0.026017  -0.053517
     63       0.018968  -0.071194  -0.102029  -0.010996  -0.007271  -0.030087
     64      -0.203708  -0.002386  -0.040918  -0.107390   0.244387   0.049258
     65       0.003342   0.119963  -0.003377   0.019141   0.005846   0.100751
     66      -0.006353  -0.002528   0.006109  -0.001435  -0.000651  -0.001240
     67      -0.000212  -0.002264  -0.000570  -0.001576   0.001957   0.007345
     68      -0.017994   0.004203  -0.001237  -0.005775  -0.002344   0.009893
     69      -0.140218   0.000016   0.118537   0.002215   0.005665   0.000185
     70       0.004222   0.000068   0.004006   0.007660  -0.106750   0.009825
     71       0.000834  -0.001877   0.006015  -0.147181  -0.021900  -0.058635
     72       0.011578   0.000661  -0.131362  -0.003378   0.012337  -0.000436
     73       0.117512   0.000632   0.006686   0.003474  -0.100394  -0.001345
     74      -0.003986  -0.155119  -0.000888  -0.035037  -0.007465  -0.074606
     75       0.080528   0.000691  -0.055444  -0.001255   0.002364  -0.000532
     76       0.014623   0.000086  -0.004262   0.008654  -0.121528   0.011894
     77      -0.004536  -0.007126  -0.006989   0.149240   0.025093   0.079599
     78       0.136464   0.000984  -0.102376  -0.001812   0.000646  -0.000494
     79       0.196405   0.000780  -0.156710   0.006054  -0.127614   0.011460
     80      -0.000616  -0.008489   0.001121  -0.039990  -0.006666  -0.085375
     81       0.157192  -0.002245  -0.106277  -0.245271  -0.039603  -0.194576
     82      -0.063224   0.004225   0.074898  -0.227520  -0.159707  -0.119960
     83      -0.010302  -0.006947  -0.015263   0.381196   0.063462   0.240134
     84       0.148210   0.004301  -0.127219   0.240070   0.040931   0.192779
     85      -0.072014  -0.004703   0.054300   0.247402  -0.082997   0.144437
     86      -0.007153  -0.006952  -0.018865   0.381904   0.062768   0.240676
     87      -0.223126  -0.000108  -0.177659  -0.018364   0.290104  -0.001995
     88       0.189831   0.000871   0.021018   0.008156  -0.186298  -0.000922
     89      -0.000142   0.010987   0.001331   0.001358   0.002284   0.089619
     90       0.123376   0.188711  -0.113031   0.045046  -0.103958   0.143211
     91       0.204991  -0.204385   0.022091  -0.033108  -0.222335  -0.198178
     92      -0.007360  -0.346504  -0.001118  -0.075480  -0.020283  -0.242674
     93       0.113267  -0.186876  -0.113076  -0.038460  -0.121693  -0.142822
     94       0.215099   0.206385   0.026157   0.052092  -0.199159   0.196752
     95      -0.010457  -0.346426  -0.002551  -0.075730  -0.014687  -0.242577
     96      -0.018200  -0.045843   0.029692  -0.006934   0.001596  -0.001062
     97      -0.005478  -0.003576  -0.001931  -0.003213   0.002311   0.011408
     98      -0.034019  -0.055476   0.031114  -0.013391   0.000761   0.010242
     99      -0.016410  -0.046538   0.029852  -0.005566   0.002019  -0.000463
    100       0.005002  -0.003274   0.000202  -0.003458   0.002225   0.011224
    101      -0.004128   0.064318  -0.033598  -0.000118  -0.005948   0.008869
    102      -0.009361   0.012735   0.014962   0.002461   0.001466   0.000799
    103      -0.027888   0.005772  -0.007019  -0.010524   0.009343  -0.023895
    104      -0.037651   0.027487   0.020947  -0.005916   0.000316   0.012886
    105      -0.007163   0.012224   0.015009   0.003949   0.001918   0.001184
    106      -0.010175   0.001076  -0.002310  -0.001219   0.000383  -0.002615
    107      -0.017930  -0.018942  -0.020124  -0.014121  -0.005359   0.011687
                 30         31         32         33         34         35    
      0       0.001683  -0.000149  -0.004103  -0.000270  -0.000831   0.000378
      1       0.031599   0.063195  -0.109128  -0.185954  -0.009865  -0.104329
      2       0.002094   0.002039   0.001385  -0.002562  -0.113121   0.006136
      3      -0.002348  -0.002378   0.007330   0.009439   0.000706   0.004183
      4       0.040339   0.077005  -0.132652  -0.224470  -0.014697  -0.147250
      5      -0.126931   0.004617   0.008662   0.008086   0.140302  -0.007084
      6      -0.000110  -0.077329   0.115331  -0.160929   0.000754  -0.116940
      7       0.000814   0.001490  -0.002013  -0.000576  -0.004694   0.000746
      8      -0.061955  -0.001916  -0.005004  -0.004883  -0.057685   0.000790
      9       0.000704  -0.094192   0.139643  -0.193984   0.000267  -0.162524
     10      -0.011140  -0.004720   0.007335  -0.007498   0.004812  -0.005765
     11       0.039180   0.056118   0.047227   0.001488   0.013372   0.000967
     12      -0.003587  -0.002108   0.009536   0.009740   0.001235   0.004970
     13       0.036178   0.077390  -0.124932  -0.221901  -0.012535  -0.144464
     14      -0.155382   0.001204   0.006713   0.008963   0.197161  -0.010559
     15       0.030182  -0.006666   0.003930   0.004516  -0.045973   0.005646
     16       0.173307   0.077322  -0.142856  -0.237200  -0.251727  -0.137802
     17      -0.208017   0.007433   0.015163   0.016063   0.274794  -0.012891
     18      -0.038385   0.003313   0.015358   0.011698   0.048945   0.001842
     19      -0.087390   0.077665  -0.131813  -0.216089   0.219466  -0.161371
     20      -0.208151   0.008163   0.014221   0.013891   0.274658  -0.014323
     21       0.013924  -0.091050   0.134393  -0.193482  -0.010310  -0.157608
     22      -0.015141  -0.005486   0.008762  -0.007188   0.008140  -0.007173
     23      -0.117766  -0.152839  -0.131069  -0.009647  -0.165876   0.014057
     24      -0.100890  -0.173677   0.074954  -0.201421  -0.075339  -0.164433
     25       0.163214   0.215394   0.197457   0.006880   0.203682  -0.018923
     26       0.177186   0.208388   0.177567   0.011934   0.152522  -0.005800
     27       0.090476  -0.019666   0.210708  -0.188228   0.085407  -0.167142
     28      -0.196174  -0.226283  -0.180582  -0.018024  -0.185655   0.006932
     29       0.177424   0.207294   0.178287   0.010055   0.152129  -0.007276
     30       0.001556   0.090238   0.064712  -0.006581   0.002778  -0.002489
     31       0.045038   0.056101  -0.088307  -0.141360   0.016699  -0.148578
     32      -0.008697   0.004532  -0.006209  -0.022982  -0.122450   0.045610
     33       0.003268  -0.085895  -0.079894  -0.006750  -0.004951  -0.002368
     34       0.011202   0.048884  -0.092848  -0.141464  -0.032199  -0.141435
     35      -0.008744  -0.002545   0.006149   0.015070  -0.112274  -0.025417
     36       0.014925  -0.089989   0.072894  -0.120450   0.003918  -0.152684
     37      -0.130979   0.003036  -0.002684   0.010153   0.026089   0.002291
     38      -0.069586   0.007546   0.014680  -0.023409  -0.060452   0.034360
     39      -0.011331   0.026952  -0.123194   0.122315  -0.003915   0.153195
     40      -0.129837  -0.004445   0.009723  -0.001025   0.024845  -0.004194
     41      -0.069294  -0.010843  -0.000456  -0.023586  -0.062450   0.034534
     42       0.000492  -0.012060  -0.009933  -0.000021   0.000279  -0.000055
     43      -0.021912   0.002845   0.002782   0.000373   0.002183  -0.000793
     44      -0.017391   0.002861  -0.003046   0.060763  -0.025404  -0.118197
     45      -0.001647  -0.052390  -0.042973   0.000032   0.000180  -0.000155
     46       0.079720   0.001112  -0.001998  -0.003556  -0.023417   0.000263
     47       0.033999  -0.004458   0.004309  -0.064818   0.059746   0.354912
     48       0.001551   0.058798   0.048183  -0.000164   0.000225   0.000109
     49      -0.117091  -0.001206   0.003584   0.006103   0.045075  -0.003182
     50       0.035976   0.000445  -0.003627   0.072028   0.051781  -0.359845
     51       0.003209   0.083812   0.075423   0.003638   0.002299   0.001877
     52       0.071581  -0.049052   0.089209   0.135899  -0.032078   0.147742
     53      -0.014177   0.006131  -0.006095  -0.022815  -0.074060   0.036419
     54      -0.015240  -0.036836   0.115641  -0.121742  -0.003516  -0.153999
     55       0.132900   0.005249  -0.009510   0.000096  -0.034337   0.005625
     56      -0.069518   0.017449  -0.001536   0.012876  -0.061350  -0.033655
     57      -0.001452   0.064685  -0.123820   0.163064  -0.000488   0.117213
     58       0.000523  -0.000956   0.001948  -0.000413  -0.004314   0.001026
     59      -0.062498   0.007874   0.003140  -0.005014  -0.059721   0.000879
     60       0.001480  -0.092279  -0.069097   0.003493  -0.004110   0.002059
     61      -0.002994  -0.056653   0.086866   0.140713  -0.009000   0.148579
     62      -0.009924  -0.000284   0.004692   0.011656  -0.078808  -0.031155
     63       0.008297   0.078547  -0.079628   0.123523   0.004463   0.153844
     64       0.131486  -0.002177   0.002791  -0.011155  -0.032131  -0.000999
     65      -0.068997  -0.001372  -0.016822   0.012924  -0.063557  -0.033384
     66      -0.001396   0.040158   0.032935  -0.000156  -0.000131   0.000739
     67       0.017040  -0.002501  -0.002310  -0.000363  -0.000786   0.001221
     68      -0.019442  -0.000358   0.002367  -0.064832  -0.021501   0.119318
     69       0.001136  -0.001944   0.000326  -0.000506  -0.000234  -0.000227
     70       0.040367  -0.063431   0.105738   0.181407  -0.026463   0.108626
     71      -0.038717   0.002103  -0.000822  -0.004956  -0.080607   0.003328
     72      -0.001130   0.078116  -0.150636   0.196441  -0.001027   0.163004
     73      -0.011491   0.004000  -0.006964   0.008829   0.005044   0.004853
     74       0.027008  -0.058546  -0.046780   0.001519   0.009452   0.000298
     75      -0.002126   0.004580  -0.005086  -0.009339   0.001420  -0.004609
     76       0.050693  -0.077050   0.128657   0.218539  -0.033647   0.153454
     77       0.081126  -0.006644  -0.006380  -0.001139   0.011606   0.001918
     78      -0.002643   0.005747  -0.005353  -0.009497   0.001985  -0.005551
     79       0.047887  -0.072676   0.127323   0.216498  -0.032395   0.150049
     80      -0.184261   0.001395   0.001192  -0.009129  -0.203033   0.016796
     81      -0.294887   0.016603   0.004708  -0.016544  -0.233212   0.010961
     82      -0.082066  -0.074220   0.134161   0.217045  -0.135769   0.159370
     83       0.294901  -0.014751  -0.013868   0.003863   0.180592  -0.008445
     84       0.287572  -0.004796  -0.014244   0.000842   0.236508  -0.019654
     85       0.187568  -0.085254   0.126596   0.223765   0.066514   0.153078
     86       0.295864  -0.015276  -0.012750   0.005981   0.180959  -0.006823
     87       0.011923   0.075608  -0.146415   0.193443  -0.011660   0.161209
     88      -0.015604   0.004553  -0.008069   0.009307   0.008432   0.005271
     89      -0.085457   0.164882   0.128826  -0.012481  -0.174965   0.008264
     90      -0.095988   0.165029  -0.088265   0.191664  -0.073720   0.166156
     91       0.113851  -0.232617  -0.193416   0.023360   0.209305  -0.004269
     92       0.135098  -0.222958  -0.174209   0.011839   0.150398  -0.005376
     93       0.081940  -0.005993  -0.219671   0.205241   0.081152   0.163604
     94      -0.147521   0.241646   0.178184  -0.007553  -0.190710   0.011905
     95       0.135329  -0.222439  -0.175443   0.013651   0.149926  -0.003802
     96      -0.010425  -0.204006  -0.166566  -0.001852  -0.005804   0.012684
     97       0.029640  -0.004447  -0.003916  -0.000828  -0.003651   0.002111
     98      -0.032477  -0.336242  -0.272229  -0.066968  -0.030451   0.136567
     99      -0.009690  -0.204652  -0.167352   0.003780  -0.005388  -0.015534
    100       0.029515  -0.002460  -0.002878  -0.000925  -0.003412   0.002400
    101      -0.008828   0.335132   0.276703  -0.070026  -0.015391   0.142423
    102       0.005020   0.045522   0.037360   0.002959   0.001388  -0.014103
    103      -0.064622   0.003556   0.005289   0.002424   0.009817  -0.003955
    104      -0.011599   0.083055   0.062863   0.064458  -0.025056  -0.138242
    105       0.005225   0.045476   0.037607  -0.002684   0.002559   0.014093
    106      -0.006334   0.000702   0.001162   0.000305   0.000602  -0.000682
    107      -0.024660  -0.076971  -0.068965   0.064007  -0.029638  -0.138314
                 36         37         38         39         40         41    
      0       0.013124   0.000381   0.000634   0.016169   0.003129   0.071508
      1       0.000833  -0.014245  -0.009689   0.001658   0.163722  -0.000058
      2       0.001644   0.006101   0.018996  -0.004577  -0.020609   0.001256
      3      -0.001317   0.000930   0.000578  -0.001489  -0.010545  -0.009619
      4       0.000227  -0.019421  -0.013001   0.001088   0.228587  -0.005400
      5       0.004134  -0.016685  -0.018325  -0.003107   0.049965   0.000347
      6       0.026080   0.001505   0.001524   0.028950   0.000480   0.120401
      7      -0.000474  -0.006326  -0.004362  -0.000019   0.088613  -0.002994
      8      -0.003455  -0.005219   0.025944  -0.021611   0.004124   0.020955
      9       0.033912   0.001423   0.001750   0.039137   0.007499   0.171322
     10       0.001521   0.002424   0.001607   0.001601  -0.016766   0.008077
     11      -0.015464   0.046398  -0.059430   0.086488   0.001300  -0.031850
     12      -0.006546   0.000861   0.000352  -0.008087  -0.012031  -0.041259
     13      -0.016423  -0.019590  -0.013706  -0.019860   0.222979  -0.105393
     14       0.003113  -0.023903  -0.029575  -0.001983   0.073965  -0.000963
     15      -0.010631   0.004534   0.005517  -0.009684  -0.026247  -0.051181
     16       0.005719   0.003697   0.024225   0.010067   0.154349   0.039608
     17       0.006778  -0.029479  -0.038078  -0.002853   0.094471   0.001955
     18      -0.005794  -0.002899  -0.004909  -0.010597   0.002721  -0.050372
     19       0.009797  -0.043099  -0.050141   0.011072   0.316866   0.039155
     20       0.006239  -0.029676  -0.038250  -0.003505   0.097001  -0.001175
     21       0.032980  -0.008735  -0.005293   0.039067   0.134650   0.166733
     22       0.001817   0.005554   0.003909   0.001461  -0.056817   0.009232
     23      -0.233810   0.276898  -0.368354   0.445506   0.001703  -0.122960
     24       0.020103  -0.012856   0.045679  -0.019144  -0.047183   0.218955
     25       0.215675  -0.209884   0.289591  -0.326359  -0.071208   0.083492
     26       0.105524  -0.061405   0.075955  -0.063843  -0.002992  -0.011378
     27       0.050840   0.024902  -0.035861   0.099526  -0.051803   0.133679
     28      -0.212097   0.223138  -0.280863   0.329525  -0.066967  -0.065743
     29       0.106239  -0.061582   0.075609  -0.062990   0.000951  -0.009798
     30       0.023181   0.000897   0.001639   0.039079   0.010969   0.030733
     31       0.002244  -0.016176  -0.011331   0.001170   0.094000   0.001211
     32       0.000839   0.009636   0.020860  -0.004202   0.012495   0.000361
     33      -0.001668  -0.001382  -0.001459  -0.014791   0.008284   0.062662
     34      -0.000628  -0.006190  -0.004163   0.001831   0.142573   0.000907
     35       0.000831   0.010863   0.020491  -0.003900  -0.023817   0.001468
     36       0.005217   0.018145  -0.022245   0.028490  -0.000814   0.092418
     37       0.001186  -0.005715  -0.001340  -0.006217   0.096873  -0.006971
     38       0.007981  -0.014883   0.040674  -0.021228   0.004448   0.029620
     39       0.005331  -0.013225   0.026676   0.027260  -0.001016   0.092457
     40       0.001245  -0.002282  -0.005705  -0.006014   0.096186  -0.005761
     41      -0.008139  -0.017177   0.039981   0.019012  -0.000425  -0.029916
     42      -0.010022  -0.000361  -0.000855  -0.032083  -0.001028  -0.035894
     43       0.002675  -0.005264  -0.003744  -0.003518   0.016800   0.000668
     44      -0.000088   0.000051   0.008294  -0.000196   0.001772  -0.000237
     45      -0.019495  -0.000423  -0.001302  -0.054991  -0.001204  -0.062570
     46       0.000444   0.001356   0.002053  -0.001285  -0.154593   0.003055
     47       0.000256  -0.001683  -0.012678   0.000594  -0.001075   0.000094
     48      -0.005969  -0.000643  -0.000102   0.021105  -0.003683  -0.113460
     49      -0.000665   0.018174   0.011047   0.000168  -0.078920   0.001465
     50      -0.000016  -0.001854  -0.013107   0.000677   0.000265  -0.000020
     51       0.023510   0.004506   0.003378   0.039792   0.011555   0.038060
     52       0.001603   0.014691   0.009830  -0.001876   0.110268  -0.000300
     53      -0.001638   0.034677   0.035439  -0.000442   0.000771  -0.000939
     54       0.037052  -0.015660   0.024580   0.015542  -0.001326   0.073351
     55      -0.003577  -0.003808  -0.005199   0.003865   0.025596  -0.009306
     56       0.005219  -0.015010   0.040452  -0.026315   0.002745  -0.003592
     57       0.026192   0.001255   0.001443   0.028822   0.000279   0.120333
     58      -0.000361  -0.006287  -0.004321   0.000183   0.088188  -0.001083
     59       0.003277  -0.008579   0.024421   0.020105  -0.000081  -0.021270
     60      -0.000952  -0.004798  -0.003014  -0.013193   0.005142   0.069447
     61      -0.000506  -0.036624  -0.023893   0.003906   0.128891  -0.000104
     62      -0.001654   0.032329   0.033917  -0.000294   0.032982  -0.001556
     63       0.037165   0.015491  -0.024097   0.016513  -0.001839   0.073162
     64      -0.003481  -0.007033  -0.000579   0.004006   0.025724  -0.008187
     65      -0.005442  -0.017157   0.040076   0.024109   0.001557   0.003323
     66      -0.106749  -0.004296  -0.003492  -0.039014   0.001869   0.096187
     67      -0.002296   0.003750   0.002604   0.003042   0.001689  -0.000997
     68      -0.000068   0.000167   0.008591  -0.000242   0.001462  -0.000046
     69       0.008476   0.000220   0.000364   0.010235   0.002661   0.043327
     70       0.000513  -0.014236  -0.009192   0.001138   0.163965  -0.001399
     71      -0.002358   0.025519   0.031537   0.001283   0.023773  -0.001517
     72       0.034048   0.001132   0.001457   0.038969   0.007160   0.171312
     73       0.001356   0.002500   0.001580   0.001487  -0.017309   0.007881
     74       0.015386   0.036248  -0.069116  -0.084181  -0.001017   0.032241
     75      -0.000284   0.001075   0.000706  -0.000499  -0.010254  -0.005854
     76       0.000109  -0.019419  -0.012713   0.000862   0.228970  -0.005372
     77      -0.002951  -0.078252  -0.055108   0.010137  -0.088754   0.000835
     78      -0.003291   0.001688   0.001049  -0.004300  -0.011157  -0.023736
     79      -0.009457  -0.019021  -0.012692  -0.011036   0.224051  -0.061861
     80       0.000499  -0.521726  -0.349030   0.043716  -0.368423   0.008565
     81      -0.000751  -0.413094  -0.268860   0.026378  -0.256716  -0.022923
     82       0.004587   0.021577   0.031370   0.001839   0.315555   0.019175
     83      -0.004771   0.125189   0.069796  -0.004896   0.006478  -0.001286
     84      -0.007966   0.414693   0.269650  -0.037369   0.233844  -0.035989
     85       0.004331  -0.061206  -0.057010   0.010697   0.156258   0.020767
     86      -0.005163   0.125943   0.070309  -0.005383   0.009449  -0.003254
     87       0.033559  -0.008978  -0.005489   0.039058   0.134492   0.169410
     88       0.001409   0.005622   0.003820   0.001471  -0.057346   0.008171
     89       0.233221   0.245577  -0.403471  -0.431562  -0.006010   0.124601
     90       0.050615  -0.009972   0.049543   0.097185  -0.049045   0.131871
     91      -0.211780  -0.190099   0.313038   0.318529  -0.064182  -0.068028
     92      -0.106087  -0.062344   0.077024   0.060618  -0.000318   0.009840
     93       0.020199   0.021445  -0.040249  -0.017386  -0.050707   0.218357
     94       0.214890   0.203486  -0.304287  -0.316088  -0.075063   0.083232
     95      -0.105110  -0.062501   0.076745   0.061159   0.003690   0.011578
     96       0.255339   0.002021   0.002956   0.103338  -0.009652  -0.236683
     97      -0.003527   0.005100   0.003808   0.005506   0.014921  -0.002151
     98       0.498613   0.008891   0.017649   0.195875  -0.014503  -0.459188
     99       0.256289   0.001757   0.002788   0.103635  -0.009719  -0.237521
    100      -0.006391   0.005440   0.003670   0.004273   0.015356   0.000499
    101      -0.497973  -0.008124   0.000141  -0.196112   0.017092   0.458418
    102       0.026107   0.005017   0.004045   0.037464   0.003972   0.045563
    103       0.003199  -0.002421  -0.002701  -0.004061   0.020864   0.000344
    104       0.050690   0.007549   0.015328   0.098333   0.008712   0.114826
    105       0.026204   0.004817   0.003984   0.037534   0.003990   0.045858
    106       0.000872  -0.002216  -0.001810  -0.001404   0.010058  -0.000080
    107      -0.050790  -0.007127   0.001726  -0.098565  -0.005098  -0.115142
                 42         43         44         45         46         47    
      0      -0.006134  -0.000146  -0.001915  -0.002594   0.012371   0.147684
      1      -0.000285  -0.004480   0.003125   0.000172  -0.003291   0.003130
      2       0.000007  -0.117730  -0.028486  -0.003343   0.062351  -0.000339
      3       0.004828   0.000299  -0.000652  -0.000564   0.001721   0.014137
      4       0.000305  -0.008996   0.006471   0.000630  -0.008201  -0.011285
      5       0.000122   0.065284   0.018230   0.004043  -0.034173   0.000476
      6      -0.007849   0.000212  -0.000058   0.000101   0.000135   0.004274
      7      -0.000357  -0.016300   0.004810   0.000570  -0.001725  -0.226130
      8       0.022382   0.013503   0.083019   0.104137   0.072391  -0.000462
      9      -0.015787  -0.000969   0.000392   0.000597  -0.000112  -0.020757
     10      -0.000907  -0.003281   0.000946   0.000145  -0.000207  -0.022346
     11       0.001051  -0.008349  -0.059829  -0.065830  -0.043159   0.000165
     12       0.009673   0.000128   0.000824   0.000821  -0.006371  -0.077134
     13       0.015465  -0.009182   0.011087   0.004995  -0.033759  -0.298516
     14      -0.003396   0.230329   0.058783   0.007330  -0.127194   0.001609
     15       0.008252  -0.037629  -0.006526  -0.001618   0.007515  -0.112576
     16      -0.007146  -0.420590  -0.090181  -0.014277   0.218579   0.113927
     17       0.001692   0.270315   0.065178   0.011467  -0.139579   0.010114
     18       0.013880   0.038275   0.009751   0.004447  -0.027344  -0.112433
     19      -0.005706   0.400927   0.099196   0.011609  -0.212683   0.118393
     20       0.002174   0.270478   0.065841   0.011783  -0.141922  -0.007203
     21      -0.016828  -0.025878   0.007917   0.001689  -0.003648  -0.461393
     22      -0.000506   0.004654  -0.001405  -0.000157   0.000941   0.117485
     23      -0.015531  -0.035502  -0.211924  -0.259017  -0.173347   0.000891
     24       0.012445   0.049102   0.250987   0.335610   0.219695   0.173216
     25       0.005722   0.018729   0.047077   0.056390   0.041861   0.171865
     26      -0.008122  -0.018949  -0.145486  -0.183196  -0.117486   0.013964
     27      -0.042886  -0.029075  -0.257023  -0.335517  -0.217167   0.175063
     28      -0.006070  -0.003659  -0.051808  -0.057079  -0.039283   0.172341
     29      -0.008017  -0.020277  -0.145012  -0.183024  -0.117718  -0.013036
     30      -0.001800   0.002437   0.001280   0.012705  -0.004417  -0.055813
     31      -0.000768  -0.298847  -0.083292  -0.011022   0.175361   0.007749
     32       0.000270   0.023579   0.027282   0.003076  -0.037016  -0.003886
     33       0.002323  -0.002862   0.001159  -0.011974  -0.005390  -0.055839
     34      -0.000007   0.283780   0.075496   0.009859  -0.159881   0.011934
     35       0.000117   0.009365   0.013924   0.001572  -0.015496   0.004834
     36       0.016176   0.029243   0.187651   0.229233   0.160453   0.014706
     37       0.001516  -0.008151   0.003646   0.002858  -0.000210   0.087962
     38       0.006840  -0.003327  -0.020616   0.000572  -0.010630  -0.007906
     39       0.016511  -0.029822  -0.202885   0.229400  -0.140146  -0.013828
     40       0.001268  -0.009892   0.000574   0.002966  -0.002922  -0.086454
     41      -0.006851  -0.002675  -0.020610  -0.001057  -0.012616  -0.006479
     42      -0.185121   0.000766  -0.001661   0.030783   0.001181  -0.000826
     43      -0.000173  -0.009998   0.003888   0.001316  -0.003126   0.000188
     44      -0.000199   0.001375  -0.002402  -0.000027  -0.006482  -0.000209
     45       0.028765  -0.000501   0.001698  -0.054143  -0.001949   0.003067
     46       0.000166   0.049322  -0.010746  -0.000652   0.004761  -0.001086
     47      -0.000016  -0.001919  -0.000549  -0.000766   0.016779   0.001025
     48       0.002120   0.000231  -0.001718   0.053072   0.002521   0.003201
     49      -0.000158  -0.037141   0.008956   0.000685  -0.004807  -0.000481
     50       0.000005  -0.000745   0.000069  -0.000682   0.015709  -0.001420
     51      -0.003479   0.002249  -0.002598   0.011968   0.000367  -0.006936
     52      -0.000731  -0.164460   0.198519   0.015919  -0.236378   0.003495
     53      -0.000385   0.003448   0.025170   0.001779  -0.029485   0.000826
     54      -0.017291  -0.027264  -0.188022  -0.230112  -0.160675   0.016063
     55       0.000696   0.008161  -0.004410  -0.003299   0.000870   0.087769
     56       0.015631  -0.002277  -0.020679  -0.000072  -0.010827   0.008260
     57      -0.007849   0.000316   0.000098  -0.000008  -0.000198  -0.006239
     58      -0.000866  -0.015038   0.003643   0.000018  -0.000195   0.224377
     59      -0.022543   0.014105   0.089819  -0.104262   0.062034  -0.000552
     60       0.000428  -0.002735   0.002820  -0.013134  -0.002081  -0.006970
     61       0.000185   0.160829  -0.199321  -0.016135   0.238130  -0.003494
     62      -0.000371  -0.000200   0.027515   0.001984  -0.032063  -0.000195
     63      -0.017613   0.030684   0.202369  -0.230141   0.140219  -0.016916
     64       0.000447   0.009140  -0.000972  -0.003101   0.001650  -0.086632
     65      -0.015633  -0.002903  -0.020244  -0.000365  -0.013003   0.006386
     66      -0.003249  -0.000411   0.001064  -0.018114  -0.000825  -0.000415
     67      -0.000113   0.005916  -0.002936  -0.000961   0.002825  -0.000043
     68      -0.000096   0.001246  -0.002461  -0.000084  -0.006358   0.000356
     69      -0.002677   0.000493  -0.000263  -0.000554  -0.001455  -0.013857
     70      -0.000193  -0.006788   0.002128   0.000104  -0.001667  -0.001050
     71      -0.000235   0.067158  -0.069945  -0.006051   0.081517  -0.001167
     72      -0.015769  -0.000694   0.000452   0.000316  -0.000408   0.013799
     73      -0.001115  -0.003010   0.000770   0.000031  -0.000532   0.021921
     74      -0.000879  -0.010248  -0.063059   0.065510  -0.037882   0.000327
     75       0.004788   0.000699  -0.000322  -0.000238   0.000195  -0.000081
     76       0.000263  -0.013192   0.003952   0.000231  -0.002851  -0.000193
     77       0.000773  -0.051440   0.056636   0.003015  -0.062098   0.000765
     78       0.007831   0.000176  -0.000056  -0.000132   0.001198   0.009130
     79       0.009765  -0.015248   0.005273   0.000670  -0.000254   0.028661
     80       0.008227  -0.189816   0.204908   0.018270  -0.234592   0.003048
     81       0.015697  -0.042685   0.046845   0.006860  -0.050323   0.013549
     82      -0.003587   0.224977  -0.244965  -0.019943   0.288601  -0.017729
     83      -0.003244  -0.132811   0.140824   0.008111  -0.163112   0.001424
     84       0.001674   0.041956  -0.046116  -0.007006   0.052980   0.012571
     85      -0.004327  -0.250319   0.251779   0.020033  -0.296333  -0.008832
     86      -0.003016  -0.133388   0.141178   0.008136  -0.163016   0.003449
     87      -0.017313  -0.022590   0.006055   0.000390   0.000709   0.451066
     88      -0.000558   0.003975  -0.000983  -0.000045  -0.000855  -0.116854
     89       0.015954  -0.032070  -0.230005   0.258580  -0.147847   0.001294
     90      -0.043072   0.049682   0.273076  -0.335156   0.186275  -0.181663
     91      -0.006160   0.012329   0.053736  -0.056559   0.032546  -0.170765
     92       0.008371  -0.024499  -0.154785   0.182992  -0.102384  -0.012110
     93       0.013123  -0.031433  -0.277187   0.335796  -0.187828  -0.177453
     94       0.005819   0.000787  -0.057064   0.056489  -0.034368  -0.170368
     95       0.008422  -0.025600  -0.154365   0.182887  -0.102185   0.014327
     96      -0.013977  -0.000260  -0.000038   0.009641  -0.001227   0.001016
     97      -0.000229   0.016655  -0.006588  -0.002099   0.004674   0.000795
     98      -0.014640   0.001231  -0.003657   0.038006  -0.005418   0.002272
     99      -0.013888  -0.000595   0.000400   0.010045   0.001879   0.000829
    100      -0.000076   0.016256  -0.007003  -0.002644   0.005418  -0.000183
    101       0.014371   0.001093  -0.001202  -0.038199  -0.008599  -0.001459
    102       0.264779   0.000095   0.000498  -0.025034  -0.002176   0.001347
    103      -0.000163  -0.020052   0.006773   0.001303  -0.006723   0.000172
    104       0.637813   0.000210   0.001001  -0.079371  -0.009658   0.002913
    105       0.266140  -0.000496   0.000977  -0.024849   0.001006   0.001354
    106      -0.002313  -0.003400  -0.000239   0.000721  -0.000238   0.000773
    107      -0.637272   0.002903  -0.005792   0.079072  -0.004685  -0.003364
                 48         49         50         51         52         53    
      0      -0.312800   0.016131   0.000388   0.063122  -0.023477  -0.046603
      1      -0.005370  -0.002014  -0.000375   0.058703  -0.016297  -0.027427
      2       0.000116  -0.002215   0.000323  -0.015332   0.003503   0.008824
      3      -0.036830   0.001941  -0.000537  -0.014964   0.002997   0.008549
      4       0.028513  -0.010474  -0.001455   0.282391  -0.095830  -0.226261
      5      -0.001111   0.000288   0.000172  -0.004646   0.000946   0.001943
      6       0.004042  -0.002854   0.062613   0.000302   0.039154  -0.009885
      7      -0.090835   0.247958  -0.072773   0.003534  -0.050277   0.021005
      8       0.000820  -0.000202   0.000071   0.000952  -0.000263  -0.000500
      9      -0.000862   0.026149   0.263981   0.000010   0.251100  -0.096987
     10      -0.011001   0.030469   0.011147   0.002292   0.013377  -0.002174
     11      -0.000303   0.000246   0.000204   0.000594  -0.000092  -0.000389
     12       0.160448  -0.008274  -0.002273  -0.035314   0.010725   0.020906
     13       0.648862  -0.042478  -0.007309   0.217348  -0.071434  -0.187374
     14      -0.003040   0.003500  -0.000094  -0.003135   0.001375   0.002530
     15       0.237662  -0.013630  -0.003470  -0.034908   0.011883   0.021597
     16      -0.240469  -0.004214   0.001491   0.332355  -0.117635  -0.268042
     17      -0.022775   0.005365   0.000420  -0.012360   0.004647   0.009948
     18       0.236720  -0.012274  -0.003439  -0.036839   0.012828   0.022752
     19      -0.250402   0.011743   0.000363   0.340018  -0.115375  -0.267899
     20       0.016008   0.002903  -0.000523   0.004698  -0.001040  -0.005023
     21      -0.181200   0.516479   0.176898   0.005583   0.205772  -0.081147
     22       0.046185  -0.125192   0.038112   0.000608   0.027571  -0.007124
     23      -0.001468   0.000440   0.000458   0.000612   0.000048  -0.000667
     24       0.080447  -0.191292   0.324166  -0.002535   0.296215  -0.114660
     25       0.068543  -0.186727   0.041122  -0.000392   0.027966  -0.006676
     26       0.004568  -0.014793  -0.007252   0.000316  -0.008441   0.003359
     27       0.076512  -0.189216   0.324657  -0.002534   0.296648  -0.114116
     28       0.067644  -0.186924   0.041451  -0.000731   0.028380  -0.007772
     29      -0.006434   0.016261   0.007698   0.001070   0.008195  -0.003368
     30       0.136983  -0.008230  -0.005993  -0.016646   0.007881   0.013285
     31      -0.020383  -0.006184   0.002811  -0.215979   0.072798   0.169827
     32       0.011555  -0.001755  -0.001435   0.164964  -0.053011  -0.116907
     33       0.136981  -0.008357  -0.006063  -0.016469   0.007819   0.013139
     34      -0.029482   0.005939   0.002284  -0.245063   0.083790   0.193287
     35      -0.012959   0.001798   0.001587  -0.167780   0.052489   0.116898
     36       0.008747  -0.024272  -0.226675   0.001100  -0.205291   0.080971
     37       0.039382  -0.113664   0.022657  -0.005333   0.013003  -0.004468
     38      -0.002253   0.013950   0.182930  -0.000396   0.148293  -0.056070
     39      -0.011901  -0.022217  -0.226640  -0.004678   0.205213  -0.080408
     40      -0.051862  -0.109877   0.022630  -0.002723  -0.013386   0.004028
     41      -0.006477  -0.013524  -0.182838  -0.004081   0.147607  -0.057026
     42       0.001789  -0.002302  -0.012299   0.000559   0.000508   0.001262
     43      -0.000401  -0.001314   0.000304  -0.004013  -0.000194  -0.000436
     44      -0.000057   0.000078  -0.000029   0.000750   0.000213  -0.003254
     45      -0.006263   0.004186   0.027896   0.000611  -0.000250  -0.000483
     46       0.002861   0.011418  -0.001894   0.026539   0.001093   0.001273
     47       0.000144  -0.000021  -0.000018  -0.000090  -0.008251   0.016436
     48      -0.006408   0.004088   0.027598   0.000631  -0.000293  -0.000489
     49       0.001766   0.007495  -0.001239   0.019359   0.000733   0.000941
     50       0.000589  -0.000051  -0.000023   0.002297   0.007759  -0.017621
     51       0.003579  -0.001315  -0.007255   0.023645   0.013052   0.031626
     52      -0.006476  -0.006270   0.003240  -0.210011  -0.094959  -0.201186
     53      -0.001933   0.001285   0.001366  -0.132029  -0.057262  -0.114437
     54       0.006035  -0.022870  -0.226561   0.001301  -0.205072   0.081223
     55       0.039854  -0.112189   0.022503  -0.002714   0.013202  -0.004241
     56       0.001715  -0.013782  -0.182467   0.000748  -0.148268   0.055803
     57       0.000009  -0.002693   0.062628   0.002156  -0.038113   0.012143
     58       0.114368   0.239517  -0.072685  -0.005589   0.049963  -0.021544
     59       0.001058  -0.000241  -0.000221   0.000875  -0.000217  -0.000671
     60       0.003514  -0.001460  -0.007278   0.023542   0.013073   0.031656
     61       0.004661   0.003489   0.002260  -0.191685  -0.096950  -0.205980
     62       0.000513  -0.001068  -0.001468   0.128179   0.058315   0.116449
     63      -0.006543  -0.023537  -0.226776  -0.004871   0.205422  -0.080340
     64      -0.051222  -0.108352   0.022288   0.000078  -0.013214   0.004177
     65       0.006669   0.013455   0.182679   0.004508  -0.147665   0.057124
     66       0.000947  -0.001491  -0.009697   0.000504   0.000449   0.001013
     67      -0.000020  -0.000257   0.000087  -0.000975   0.000184   0.000677
     68      -0.000250   0.000087  -0.000031   0.000523  -0.000487   0.002658
     69       0.007652  -0.000751   0.003133  -0.050322  -0.029171  -0.069046
     70       0.001497  -0.002401  -0.000262   0.046241   0.016851   0.023823
     71       0.002037   0.001968  -0.000245   0.004509  -0.000553  -0.001192
     72       0.018039   0.025341   0.264104   0.007083  -0.248255   0.102857
     73       0.014363   0.029374   0.011191  -0.002764  -0.013418   0.002100
     74      -0.000578   0.000079  -0.000283   0.000595  -0.000030  -0.000438
     75       0.000526  -0.000034   0.000063  -0.035637  -0.018487  -0.042905
     76       0.001009  -0.009023  -0.001758   0.250931   0.119888   0.258865
     77      -0.001008  -0.000477  -0.000095   0.001005   0.000145   0.000159
     78      -0.005296   0.000492  -0.003802   0.030506   0.018286   0.043946
     79      -0.017251  -0.007197  -0.014284   0.456691   0.234622   0.529992
     80      -0.005003  -0.004143   0.000366  -0.004148   0.001027   0.001017
     81      -0.008679  -0.000856  -0.005774   0.066674   0.037763   0.088466
     82       0.015615  -0.003339   0.002981   0.192534   0.080662   0.164927
     83      -0.002668  -0.002644   0.000806  -0.021246  -0.009202  -0.020489
     84      -0.006411   0.000892  -0.006089   0.067589   0.036747   0.089052
     85       0.002209  -0.016076   0.004102   0.171882   0.082070   0.168965
     86      -0.004014  -0.002957  -0.000683   0.014764   0.009685   0.023175
     87       0.244647   0.498932   0.177299   0.000929  -0.203401   0.086109
     88      -0.057652  -0.121053   0.038087  -0.000738  -0.027483   0.007293
     89      -0.002748   0.000587  -0.000300   0.000750   0.000038  -0.000345
     90      -0.078218  -0.184618   0.324400   0.010355  -0.293141   0.120663
     91      -0.085729  -0.180828   0.041277  -0.000791  -0.028329   0.007628
     92      -0.009115  -0.014677  -0.007735   0.000159   0.008061  -0.003703
     93      -0.085410  -0.182765   0.324411   0.010364  -0.293398   0.121113
     94      -0.087020  -0.180319   0.041129   0.000036  -0.027997   0.006939
     95       0.005582   0.015300   0.007239   0.000574  -0.008384   0.003393
     96      -0.001707   0.002025   0.010035   0.000724  -0.000372   0.001557
     97      -0.002742  -0.001161   0.000557  -0.008170  -0.000960  -0.000021
     98      -0.003826   0.004867   0.026926   0.000928  -0.001481   0.003263
     99      -0.001402   0.001900   0.010111   0.001064   0.000990  -0.000063
    100       0.001544  -0.001427   0.000016  -0.010280  -0.001401  -0.003282
    101       0.003154  -0.004598  -0.026958  -0.000026  -0.001066   0.004061
    102      -0.002684   0.003083   0.013780   0.000552   0.000903  -0.000062
    103       0.000582  -0.001481   0.000272  -0.001486  -0.000423  -0.002568
    104      -0.006378   0.007658   0.036845   0.000791   0.000511  -0.005321
    105      -0.002385   0.002953   0.013876   0.000835  -0.000711   0.000768
    106      -0.002953   0.000533  -0.000617  -0.007721   0.001307   0.004056
    107       0.006166  -0.007447  -0.036840   0.000582   0.001729  -0.002628
                 54         55         56         57         58         59    
      0       0.005450  -0.000693  -0.001183   0.006960   0.039334  -0.001964
      1       0.001109  -0.001822  -0.000285  -0.046378  -0.269115   0.010244
      2       0.000144  -0.002805   0.000022   0.005821   0.037018   0.003415
      3       0.006431  -0.002455   0.000662  -0.005004  -0.029528   0.001570
      4      -0.008871  -0.000255   0.000226   0.049949   0.288761  -0.013256
      5       0.000021  -0.005006   0.000044   0.003761   0.025300   0.002441
      6      -0.002119   0.000102   0.187715   0.193037  -0.026230   0.000436
      7      -0.006110  -0.000122   0.030830   0.029297  -0.003067  -0.000653
      8      -0.000160  -0.000051   0.000033  -0.000347  -0.002141   0.000054
      9      -0.007175  -0.000155  -0.236178  -0.222319   0.029651  -0.000462
     10      -0.008159   0.000804  -0.022597  -0.022211   0.001799  -0.002521
     11      -0.000071  -0.000235   0.000092  -0.000294  -0.000822   0.000196
     12       0.004167  -0.001678  -0.000056   0.001876   0.011341  -0.000812
     13      -0.016045   0.002278  -0.002167   0.073874   0.428923  -0.021497
     14       0.000075  -0.007091  -0.000025  -0.003841  -0.026219   0.006506
     15       0.003139  -0.000771  -0.001203   0.002825   0.018773  -0.002115
     16      -0.007139   0.003737   0.001861   0.076970   0.453407  -0.022549
     17       0.000706  -0.007862   0.000354  -0.009928  -0.060076   0.007937
     18       0.003119  -0.001331  -0.001245   0.001650   0.010902  -0.000755
     19      -0.007195  -0.004063   0.001455   0.049482   0.271086  -0.011569
     20      -0.000688  -0.006452  -0.000474   0.004830   0.026698   0.002673
     21      -0.010924  -0.000378  -0.333250  -0.325738   0.041421  -0.003493
     22      -0.006884   0.000862   0.005269   0.007400  -0.001566  -0.001563
     23      -0.000294  -0.001512   0.000108   0.000119  -0.000605   0.001658
     24      -0.006055  -0.000275  -0.290275  -0.278297   0.037143   0.001227
     25      -0.006179   0.002207   0.008317   0.009243  -0.001012  -0.001401
     26       0.000426   0.000563   0.030688   0.031397  -0.004303  -0.000014
     27      -0.006803   0.000099  -0.290325  -0.277186   0.039413   0.000526
     28      -0.006366  -0.000615   0.008138   0.008593  -0.000055   0.000671
     29      -0.000695   0.000690  -0.030389  -0.031090   0.003111  -0.001061
     30      -0.003993  -0.000436   0.001942  -0.000796  -0.004061   0.000232
     31       0.006181  -0.004265  -0.000224  -0.015091  -0.092525   0.003086
     32      -0.002042  -0.004386  -0.000398  -0.055444  -0.339574   0.015573
     33      -0.003972  -0.001035   0.001983  -0.000856  -0.004530   0.000226
     34       0.006389  -0.000057  -0.000116  -0.007396  -0.044108   0.001059
     35       0.001803  -0.002172   0.000324   0.051587   0.313735  -0.012787
     36      -0.000095   0.000057   0.068910   0.057724  -0.007481   0.000002
     37      -0.001053  -0.001491  -0.003415  -0.003473  -0.001538  -0.000667
     38      -0.000899   0.000161   0.240956   0.255033  -0.036262   0.000626
     39      -0.002379  -0.000082   0.068837  -0.057622   0.006983  -0.000197
     40       0.000651  -0.004267  -0.003374   0.002945  -0.002394  -0.000661
     41       0.000129   0.000259  -0.241039   0.255015  -0.035548   0.000808
     42      -0.002845   0.000536  -0.001772   0.000010  -0.000109  -0.000002
     43      -0.000054  -0.023958  -0.000079   0.000205   0.000673   0.001656
     44      -0.000344   0.000619   0.000001  -0.000691  -0.000801   0.000010
     45      -0.000069   0.000000  -0.007045  -0.000015  -0.000082   0.000017
     46       0.001620  -0.003133  -0.000067   0.000648   0.005204  -0.000900
     47       0.001514  -0.000007  -0.000007  -0.007352   0.004151  -0.000189
     48      -0.000060   0.000000  -0.007090  -0.000015  -0.000154  -0.000006
     49       0.001316   0.000788  -0.000087   0.000583   0.004538  -0.003161
     50      -0.001492  -0.000038   0.000005   0.007069  -0.005953   0.000226
     51      -0.082185   0.000259   0.001963   0.000227  -0.001917   0.000127
     52      -0.038865  -0.003100  -0.000076   0.000154  -0.020212   0.000306
     53      -0.031890   0.002612   0.000668  -0.004664   0.095545  -0.004198
     54      -0.000775  -0.000042   0.068809   0.057382  -0.008572   0.000241
     55      -0.000991   0.001356  -0.003292  -0.003298  -0.001312  -0.002116
     56       0.001227  -0.000146  -0.240942  -0.254900   0.036726  -0.000752
     57      -0.002889  -0.000235   0.187779  -0.193029   0.025581  -0.000550
     58       0.006591  -0.002982   0.030787  -0.029038   0.005159  -0.000763
     59       0.000266   0.000020  -0.000086  -0.000244  -0.001997   0.000133
     60      -0.082172   0.000887   0.002550   0.000238  -0.001835   0.000134
     61      -0.038313  -0.000132  -0.000113  -0.000357  -0.022854   0.000349
     62       0.031915   0.003599  -0.000655   0.005265  -0.091086   0.002822
     63      -0.002303  -0.000054   0.068923  -0.057526   0.008146  -0.000215
     64       0.000717  -0.000359  -0.003427   0.003083  -0.002047  -0.002184
     65      -0.000372  -0.000302   0.240988  -0.254918   0.035848  -0.000803
     66      -0.002553   0.000024  -0.001582   0.000001  -0.000096  -0.000204
     67      -0.000036   0.001946   0.000117   0.002455   0.029983   0.126893
     68       0.000215   0.000002  -0.000001   0.000406  -0.001298  -0.001311
     69       0.228659   0.001051  -0.001148  -0.000943   0.011183  -0.000704
     70       0.018086  -0.000725  -0.000516   0.006234  -0.087096   0.001821
     71      -0.000003   0.003007  -0.000006  -0.000555  -0.004565  -0.004283
     72      -0.004629   0.000296  -0.236260   0.222283  -0.029328   0.000676
     73       0.007943  -0.002529  -0.022671   0.022024  -0.003769  -0.002485
     74       0.000048   0.000276  -0.000018  -0.000363  -0.000893  -0.000148
     75       0.082451   0.002472  -0.000854   0.000349  -0.002617   0.000310
     76       0.048440  -0.001789   0.000207  -0.004943   0.091997  -0.004787
     77       0.000049   0.006150   0.000044  -0.000319  -0.001174  -0.004097
     78      -0.152298   0.001623   0.001187  -0.000260  -0.002191  -0.000043
     79      -0.680038  -0.004260   0.006182  -0.007469   0.097540  -0.006349
     80      -0.000139   0.005736   0.000060   0.000182   0.000200  -0.004985
     81      -0.269965   0.001451   0.001991  -0.000050  -0.009129  -0.000479
     82       0.377087   0.000203  -0.001905  -0.008487   0.128720  -0.006232
     83       0.034845   0.005735  -0.000367   0.001051  -0.010648  -0.003164
     84      -0.269764   0.000382   0.001905   0.000348  -0.009899   0.000350
     85       0.377037  -0.000351  -0.002117  -0.006655   0.133391  -0.008191
     86      -0.035192   0.005638   0.000323  -0.000671   0.010155  -0.005300
     87      -0.000318   0.001594  -0.333285   0.325138  -0.046208  -0.001901
     88       0.006634  -0.002904   0.005174  -0.007416   0.001105  -0.001659
     89      -0.000118   0.000698   0.000009   0.000124  -0.000108  -0.001606
     90      -0.006260  -0.000233  -0.290431   0.277384  -0.035992   0.001879
     91       0.005969  -0.005353   0.008078  -0.008351   0.002708   0.000464
     92      -0.000220  -0.000977   0.030532  -0.031079   0.004292   0.000925
     93      -0.006872  -0.000726  -0.290440   0.278657  -0.033672   0.002728
     94       0.005830  -0.001885   0.008148  -0.008907   0.003050  -0.001410
     95       0.000086  -0.000541  -0.030548   0.031160  -0.005212   0.000192
     96      -0.002286  -0.000064   0.000037  -0.000053   0.001381   0.003657
     97      -0.004585   0.014744  -0.000727  -0.006274  -0.165365  -0.703665
     98       0.000697  -0.000141   0.002274  -0.000087   0.001581   0.006930
     99      -0.002150   0.000053   0.000025   0.000178  -0.000479   0.000970
    100       0.002694   0.010846  -0.000461  -0.018240  -0.146365  -0.697074
    101      -0.000242  -0.000185  -0.002259   0.000110   0.002819   0.013057
    102      -0.001581  -0.000286   0.000266   0.000334   0.000174   0.000039
    103      -0.000537  -0.111872  -0.000101   0.001071   0.003488   0.000584
    104       0.001751  -0.000544   0.003036   0.000093  -0.000771   0.000059
    105      -0.001316  -0.005921   0.000252  -0.000237  -0.000130  -0.000138
    106      -0.005697   0.992904   0.002374  -0.009657  -0.016266   0.016665
    107      -0.002557  -0.009157  -0.003061   0.000172  -0.000859  -0.000090
                 60         61         62         63         64         65    
      0       0.000920   0.010702   0.000214  -0.000277   0.000917  -0.104879
      1      -0.000659  -0.082660   0.000065   0.000440   0.000136   0.001865
      2       0.000023   0.011777  -0.000384   0.000045   0.001528  -0.003920
      3       0.003061  -0.009515  -0.000208   0.000226  -0.000808   0.090975
      4       0.000604   0.076400  -0.000036  -0.000249  -0.000239   0.006841
      5       0.000006   0.011661   0.000073   0.000640  -0.002497   0.110144
      6       0.000161  -0.008048   0.000002  -0.000047   0.000026  -0.005289
      7      -0.001888  -0.001385  -0.000006   0.000083  -0.000674   0.072688
      8       0.000040  -0.000684  -0.002220   0.001929  -0.000856  -0.000230
      9      -0.000155   0.009832  -0.000053   0.000036  -0.000069   0.009206
     10      -0.002059   0.002195   0.000041  -0.000045   0.000486  -0.063261
     11       0.000008  -0.000154  -0.114964  -0.115241   0.002035   0.000497
     12       0.002171   0.003968   0.000127  -0.000113   0.000365  -0.042722
     13      -0.001953   0.123453   0.000955  -0.001304   0.003254  -0.389825
     14       0.000227  -0.013183  -0.000946  -0.001455   0.005245  -0.149987
     15       0.000977   0.007191   0.000824  -0.000161   0.000504  -0.135230
     16       0.002496   0.140818   0.000885   0.003214  -0.013508   0.574534
     17       0.000259  -0.021504  -0.000899  -0.000777   0.002820  -0.029663
     18       0.001448   0.002595  -0.000009  -0.000618   0.002440  -0.201840
     19       0.001651   0.057121  -0.001854  -0.003129   0.009840  -0.209500
     20      -0.000443   0.005546  -0.000670  -0.001106   0.003750  -0.137628
     21       0.001105   0.016170   0.000088  -0.000206   0.002287  -0.266221
     22      -0.002436   0.000404  -0.000082  -0.000044  -0.000302   0.029700
     23      -0.000472  -0.000241   0.191259   0.193942  -0.004850  -0.001309
     24      -0.001243   0.010424  -0.458751  -0.462408   0.009652   0.136294
     25      -0.003215  -0.001262   0.004225   0.004633  -0.001296   0.117800
     26      -0.000105  -0.001898   0.097944   0.099667  -0.003372   0.036066
     27      -0.000897   0.010891   0.458805   0.463062  -0.011841   0.131771
     28      -0.002839  -0.000710  -0.004292  -0.004345  -0.000742   0.117777
     29       0.000074   0.001481   0.097798   0.099445  -0.002745  -0.037105
     30       0.001304  -0.001292  -0.000155  -0.000047  -0.000404   0.017334
     31      -0.000175  -0.021351  -0.000263  -0.000242   0.000985  -0.038265
     32      -0.000902  -0.111214  -0.000209  -0.000070   0.000719  -0.024595
     33       0.000603  -0.001402   0.000260   0.000164   0.000145   0.016217
     34       0.000046  -0.004517   0.000316   0.000182  -0.001173   0.031388
     35       0.000830   0.099896  -0.000258  -0.000910   0.000289  -0.033880
     36       0.000066  -0.002578   0.040101   0.040577  -0.000848  -0.002514
     37      -0.001054   0.001328   0.000369   0.000753   0.000441  -0.012021
     38       0.000172  -0.016148   0.031814   0.030700  -0.000931  -0.002830
     39      -0.000096   0.003093   0.040412  -0.040125   0.000582   0.002827
     40       0.001060   0.000813   0.000368  -0.000720   0.000081   0.013009
     41       0.000185  -0.016922  -0.032048   0.030303  -0.000761  -0.002854
     42       0.000008   0.000129  -0.000949  -0.000029  -0.000217   0.000070
     43      -0.000069   0.000112  -0.000268   0.000006   0.000867  -0.000536
     44      -0.000002  -0.000487  -0.000002  -0.000172  -0.000583   0.000069
     45      -0.000001   0.000195  -0.002462  -0.000015   0.000074   0.000103
     46      -0.000042  -0.002822   0.000122   0.000042   0.001858   0.000886
     47       0.000088   0.008279  -0.000005  -0.000037  -0.000312  -0.000201
     48       0.000016   0.000160   0.002439   0.000013  -0.000074  -0.000101
     49      -0.000033  -0.002478  -0.000162  -0.000045  -0.001696  -0.000441
     50      -0.000091  -0.008772  -0.000004  -0.000024  -0.000301  -0.000096
     51      -0.001234   0.004525  -0.000183   0.000077   0.000648  -0.000456
     52       0.000699   0.048980  -0.000184  -0.001218  -0.052629  -0.001087
     53      -0.004693  -0.352972   0.000152   0.000657   0.042564   0.002240
     54       0.000077  -0.002911  -0.040100  -0.040606   0.000867  -0.001847
     55      -0.001697   0.001268  -0.000355  -0.000769  -0.000312  -0.011559
     56      -0.000169   0.016356   0.031836   0.030814  -0.000948   0.002244
     57      -0.000166   0.008947   0.000002   0.000042  -0.000053   0.005401
     58       0.001960  -0.000216   0.000211  -0.000253   0.000908  -0.081621
     59       0.000037  -0.000691   0.002162   0.002064  -0.000310  -0.000240
     60      -0.000534   0.004578   0.000382  -0.000125  -0.000783  -0.000233
     61       0.000572   0.048042   0.000236   0.001240   0.052365   0.000728
     62       0.004646   0.354831   0.000170   0.000627   0.042249   0.000655
     63      -0.000087   0.003494  -0.040472   0.040216  -0.000604   0.002356
     64       0.001731   0.000251  -0.000372   0.000775  -0.000516   0.013163
     65      -0.000152   0.017102  -0.032056   0.030404  -0.000746   0.002274
     66       0.000243   0.000148   0.000770   0.000023   0.000218   0.000016
     67      -0.000526   0.000427   0.000393  -0.000022  -0.001298   0.000319
     68      -0.000087  -0.000033  -0.000001  -0.000177  -0.000586  -0.000099
     69      -0.001111  -0.030085   0.000170   0.000020   0.000252   0.001609
     70       0.004282   0.314593   0.000027  -0.000005  -0.000211  -0.000898
     71      -0.000010  -0.001376   0.000373   0.000251   0.012636  -0.000274
     72       0.000204  -0.009912   0.000034  -0.000116   0.000103  -0.009522
     73       0.001990  -0.001792  -0.000170   0.000228  -0.000926   0.071064
     74      -0.000049  -0.000225   0.116046  -0.114156   0.002235   0.000503
     75      -0.003244   0.008716  -0.000170   0.000009  -0.000147  -0.000929
     76      -0.003952  -0.287427  -0.000009  -0.000006   0.000219   0.000601
     77       0.000118  -0.000874   0.000171  -0.003759  -0.163426  -0.002296
     78      -0.002002   0.000538   0.000039  -0.000042  -0.000435   0.000264
     79      -0.000490  -0.331179   0.000613  -0.000124   0.000774   0.004181
     80       0.000349   0.000661   0.000640   0.005876   0.274492   0.005606
     81      -0.000453   0.028449  -0.000028  -0.000300  -0.007654   0.001441
     82      -0.007082  -0.427908  -0.000874  -0.014155  -0.651910  -0.012568
     83      -0.000092   0.038967   0.000507   0.002869   0.139246   0.002439
     84      -0.000247   0.027995   0.000533   0.000318   0.008483   0.001336
     85      -0.007943  -0.422019   0.000293   0.014122   0.650869   0.011198
     86       0.000039  -0.038417   0.000682   0.002871   0.140039   0.003709
     87      -0.001380  -0.013938  -0.000733   0.000839  -0.003745   0.298952
     88       0.002481  -0.000662   0.000158  -0.000157   0.000371  -0.033089
     89      -0.000346   0.000082  -0.193117   0.192287  -0.004385  -0.000943
     90       0.000842  -0.012707   0.463449  -0.459073   0.011477  -0.147615
     91       0.002994  -0.000965  -0.003943   0.004055   0.001865  -0.133170
     92       0.000180   0.000972  -0.098831   0.098733  -0.001553  -0.042059
     93       0.001704  -0.011922  -0.462945   0.458174  -0.007900  -0.152295
     94       0.003391  -0.000550   0.004643  -0.004891   0.001223  -0.132770
     95      -0.000097  -0.001284  -0.098848   0.098766  -0.002558   0.040627
     96       0.002024   0.000462  -0.000104  -0.000726   0.000283   0.000061
     97      -0.704066   0.061784  -0.000456   0.000358  -0.000056   0.002969
     98       0.004451   0.000660  -0.001390  -0.001176  -0.000480  -0.000187
     99      -0.007133   0.000440  -0.000121   0.000766   0.000188  -0.000290
    100       0.709836  -0.070185   0.000086  -0.000273   0.001224   0.000835
    101      -0.003084   0.001290   0.001407  -0.001157  -0.000584   0.000216
    102       0.000037  -0.000005   0.000126  -0.000749  -0.000170   0.000000
    103      -0.000764  -0.001899  -0.000274   0.000011   0.000747  -0.000580
    104       0.000000  -0.001120   0.001757  -0.001127  -0.000486  -0.000152
    105      -0.000065   0.000422   0.000125   0.000720  -0.000275  -0.000159
    106       0.002971  -0.016021  -0.001251   0.000269   0.003504  -0.002561
    107       0.000005  -0.001056  -0.001741  -0.001179  -0.000551   0.000393
                 66         67         68         69         70         71    
      0      -0.030745  -0.000006   0.153240  -0.001469  -0.000180   0.002458
      1      -0.015113   0.001565   0.015461  -0.000339  -0.000911  -0.064466
      2       0.005366  -0.000448  -0.002264   0.000367  -0.000126  -0.009561
      3       0.026840   0.000200  -0.132477  -0.002623   0.000130   0.003918
      4       0.012176  -0.001495  -0.021701   0.000270  -0.001588  -0.068498
      5      -0.144989   0.009532   0.045377  -0.000146   0.000014   0.002468
      6      -0.005799  -0.009504  -0.004562   0.001449   0.090495   0.067276
      7       0.082627   0.134694   0.069538   0.004722   0.003101   0.002517
      8       0.000353   0.000003  -0.000110   0.000383   0.000063   0.000866
      9       0.010264   0.016733   0.007915   0.002500   0.077630   0.062088
     10      -0.071706  -0.117102  -0.060436   0.003069   0.004050   0.003394
     11      -0.000567   0.000019   0.000226  -0.000162  -0.000043  -0.000099
     12      -0.012551   0.000343   0.062411  -0.003100   0.003010   0.114212
     13      -0.102537  -0.001016   0.553810  -0.001289   0.008364   0.318022
     14       0.197730  -0.013356  -0.062331   0.000379   0.000004  -0.008776
     15      -0.094892   0.002155   0.261903  -0.003482  -0.003034  -0.082045
     16      -0.446311   0.032980  -0.123141   0.000175   0.005728   0.309523
     17       0.123825  -0.007020  -0.110766   0.000264  -0.001320  -0.110813
     18      -0.006638  -0.003739   0.233738  -0.003306  -0.003073  -0.091248
     19       0.586587  -0.035687  -0.447008   0.001589   0.005616   0.302574
     20       0.096364  -0.007894   0.041937   0.000103   0.001272   0.107213
     21      -0.302169  -0.492580  -0.254132  -0.005016  -0.378956  -0.297619
     22       0.033758   0.054829   0.028102   0.005515   0.134316   0.105987
     23       0.001614  -0.000075  -0.000528   0.000358   0.000100   0.000870
     24       0.149413   0.247947   0.128466   0.005052  -0.367939  -0.288996
     25       0.133985   0.218852   0.113510   0.007031  -0.099549  -0.079077
     26       0.042227   0.068033   0.035055   0.000531   0.132099   0.103736
     27       0.154439   0.247540   0.126444   0.006478  -0.367824  -0.288521
     28       0.134191   0.218910   0.113580   0.006972  -0.099430  -0.079537
     29      -0.041111  -0.068105  -0.035496  -0.000228  -0.132008  -0.103276
     30       0.004176  -0.000098  -0.024606  -0.000487   0.000092  -0.000454
     31       0.044867  -0.003228  -0.009203  -0.000221   0.000321   0.022957
     32       0.025943  -0.001602  -0.002597  -0.000148   0.000454   0.030780
     33       0.005661  -0.000195  -0.025067  -0.000501   0.000104  -0.000444
     34      -0.046429   0.002948   0.018867  -0.000162   0.000283   0.019833
     35       0.051053  -0.003625  -0.021064  -0.000049  -0.000393  -0.025656
     36      -0.002288  -0.004573  -0.002412   0.001134  -0.028518  -0.022302
     37      -0.013076  -0.021424  -0.011390   0.001353  -0.000525  -0.000491
     38      -0.002817  -0.004317  -0.002271  -0.000037  -0.035162  -0.026740
     39       0.002332  -0.004506   0.002257   0.001403  -0.028176   0.022787
     40       0.012020  -0.021077   0.012172  -0.001468  -0.000521   0.000426
     41      -0.002596   0.004256  -0.002711  -0.000465   0.034772  -0.027374
     42      -0.000013   0.000051  -0.000093   0.001571   0.000061  -0.000002
     43       0.000658  -0.000317  -0.000121   0.000098  -0.000000   0.000035
     44       0.000058   0.000007   0.000013  -0.000043  -0.000001   0.000107
     45      -0.000121   0.000569   0.000005   0.001200   0.000147  -0.000009
     46      -0.000820   0.000032  -0.000023   0.000261  -0.000022  -0.000005
     47       0.000521  -0.000027  -0.000154  -0.000005   0.000000  -0.000089
     48       0.000160   0.000546  -0.000090   0.001207   0.000158  -0.000011
     49       0.000944  -0.000274  -0.000620   0.000276  -0.000036  -0.000099
     50      -0.000146   0.000001   0.000046   0.000008   0.000001   0.000200
     51      -0.000140  -0.000174   0.000046   0.062784   0.000086   0.000120
     52       0.000619  -0.000138  -0.000067  -0.002515   0.000047  -0.003024
     53      -0.003002  -0.000110   0.001247  -0.001065  -0.000101   0.003907
     54      -0.002950  -0.004499  -0.002154   0.001220  -0.028472  -0.021955
     55      -0.013652  -0.021322  -0.011232   0.001316  -0.000540  -0.000504
     56       0.003457   0.004259   0.002052  -0.000201   0.035102   0.026241
     57       0.005008  -0.009346   0.005564   0.001781   0.089504  -0.068874
     58      -0.073711   0.132507  -0.073974  -0.004500   0.003055  -0.002435
     59       0.000215   0.000041  -0.000016  -0.000354  -0.000033   0.000860
     60      -0.000436  -0.000145   0.000145   0.062795   0.000050   0.000116
     61      -0.000586  -0.000123   0.000405  -0.002389   0.000055  -0.003138
     62      -0.000111   0.000310  -0.000256   0.001273   0.000099  -0.005301
     63       0.002399  -0.004443   0.002224   0.001454  -0.028167   0.022470
     64       0.011837  -0.020975   0.012202  -0.001517  -0.000509   0.000435
     65       0.003015  -0.004234   0.002555   0.000687  -0.034719   0.026884
     66       0.000036   0.000037  -0.000069   0.001497  -0.000021  -0.000002
     67      -0.000613  -0.001084   0.000429  -0.000244   0.000016   0.000056
     68      -0.000003   0.000013  -0.000015   0.000041  -0.000001   0.000059
     69       0.001642   0.000124   0.000998  -0.325680  -0.000042  -0.000483
     70       0.001222   0.000681  -0.000378  -0.010909  -0.000159   0.007692
     71       0.001023   0.000008  -0.000303  -0.000155   0.000008   0.001601
     72      -0.008956   0.016478  -0.009639   0.002128   0.076792  -0.063945
     73       0.064167  -0.115213   0.063994  -0.002842   0.004025  -0.003539
     74       0.000089  -0.000174  -0.000078   0.000166  -0.000008  -0.000041
     75      -0.001027   0.000132  -0.001034   0.181579   0.000026  -0.000712
     76      -0.000839  -0.000930   0.000073   0.015565  -0.000830   0.010583
     77       0.000604   0.000302  -0.000336  -0.000246  -0.000007  -0.000137
     78       0.000240   0.000373   0.000190  -0.047717   0.001692  -0.017044
     79       0.002770  -0.000027   0.003855  -0.646440   0.004840  -0.046704
     80      -0.002904  -0.000083   0.001150   0.000769   0.000095   0.000723
     81       0.001441  -0.000685   0.001316  -0.321149  -0.001978   0.013464
     82       0.002539  -0.000123  -0.003428   0.311329   0.002234  -0.044168
     83      -0.002316   0.000331   0.000098   0.123456  -0.000160   0.015308
     84       0.001744  -0.000774   0.001225  -0.320465  -0.001899   0.014067
     85      -0.008502  -0.001026   0.000952   0.313952   0.002215  -0.043351
     86      -0.001375  -0.000214   0.001208  -0.123377   0.000186  -0.014875
     87       0.269952  -0.484613   0.269816   0.007921  -0.374863   0.307188
     88      -0.029995   0.053922  -0.030321  -0.005021   0.132880  -0.109409
     89      -0.000044   0.000380   0.000071  -0.000401   0.000141   0.000298
     90      -0.135861   0.243112  -0.136342  -0.000545  -0.363937   0.296074
     91      -0.119510   0.215203  -0.119751  -0.008399  -0.098483   0.082561
     92      -0.036921   0.067071  -0.037174  -0.001490   0.130689  -0.105611
     93      -0.135251   0.244340  -0.135945  -0.001953  -0.363867   0.296709
     94      -0.120113   0.215426  -0.119671  -0.008333  -0.098363   0.082244
     95       0.037626  -0.066882   0.037094   0.001169  -0.130530   0.105854
     96      -0.000009   0.000167   0.000208   0.001345   0.000083  -0.000321
     97      -0.001911   0.006804  -0.006873  -0.006123  -0.000200  -0.000587
     98      -0.000029   0.000190   0.000403  -0.000189   0.000152  -0.000436
     99      -0.000007   0.000143  -0.000004   0.001131   0.000068   0.000326
    100      -0.000595   0.005885   0.004714   0.008715  -0.000198  -0.000902
    101       0.000117  -0.000341  -0.000256   0.000367  -0.000125  -0.000429
    102      -0.000169   0.000197   0.000114   0.001135   0.000121   0.000305
    103       0.001003   0.000378  -0.000019   0.001485  -0.000072  -0.000359
    104      -0.000118   0.000231   0.000352  -0.000879   0.000057   0.000490
    105       0.000047   0.000136   0.000179   0.001165   0.000101  -0.000331
    106       0.005127   0.002557  -0.005696  -0.004733  -0.000206   0.000547
    107      -0.000070  -0.000226  -0.000321   0.000792  -0.000029   0.000514
                 72         73         74         75         76         77    
      0       0.002763  -0.001184  -0.001347   0.001834  -0.004055  -0.001933
      1      -0.071102   0.026086   0.000431   0.208718  -0.373255  -0.097736
      2      -0.009972   0.003686   0.000007   0.030216  -0.055496  -0.016181
      3       0.005014  -0.002591   0.000492   0.018871  -0.035003  -0.010481
      4      -0.086670   0.041986   0.000605  -0.098211   0.161929   0.035414
      5       0.002566  -0.000939  -0.000061  -0.008660   0.016306   0.005038
      6      -0.037406   0.022083   0.290836  -0.257499  -0.141981  -0.080150
      7      -0.001303   0.000839  -0.002401   0.001951   0.002696   0.000608
      8       0.000869  -0.000301   0.000037  -0.003452   0.006052   0.001915
      9      -0.040104   0.028090  -0.145492   0.124184   0.063089   0.030776
     10      -0.002304   0.001586  -0.026861   0.023826   0.013102   0.008923
     11      -0.000090   0.000044  -0.000031   0.000523  -0.000887  -0.000273
     12       0.141961  -0.066805   0.000341   0.114217  -0.191279  -0.045746
     13       0.393473  -0.183170   0.000952   0.253997  -0.419287  -0.099826
     14      -0.009230   0.003253   0.000553   0.046864  -0.094235  -0.031413
     15      -0.103265   0.050269  -0.004867  -0.205441   0.377372   0.112827
     16       0.381526  -0.176077  -0.004103   0.106282  -0.139148  -0.006850
     17      -0.137042   0.063035   0.004742   0.020245  -0.069103  -0.041411
     18      -0.113090   0.053895  -0.004338  -0.156035   0.276960   0.078518
     19       0.374462  -0.173413  -0.004335   0.108889  -0.136471  -0.002471
     20       0.133228  -0.061559  -0.004672  -0.007113   0.043608   0.033239
     21       0.188354  -0.127122   0.379829  -0.324244  -0.160892  -0.087583
     22      -0.067476   0.045830  -0.169535   0.145114   0.073382   0.039971
     23       0.000862  -0.000452   0.000182  -0.004324   0.006864   0.001990
     24       0.179604  -0.123162   0.176211  -0.137487  -0.057164  -0.008910
     25       0.051983  -0.034992   0.258980  -0.230554  -0.119144  -0.081328
     26      -0.063684   0.044472   0.008334  -0.017645  -0.016632  -0.029599
     27       0.179871  -0.123029   0.175879  -0.137987  -0.055430  -0.008189
     28       0.051178  -0.034445   0.258512  -0.226677  -0.124667  -0.082852
     29       0.064040  -0.044604  -0.008247   0.016019   0.019073   0.030285
     30      -0.000497   0.000247   0.001039  -0.000043   0.000180   0.000140
     31       0.025391  -0.010332  -0.000192  -0.061978   0.111058   0.031368
     32       0.033796  -0.013200  -0.000179  -0.076969   0.136682   0.035509
     33      -0.000488   0.000245   0.001091  -0.000034   0.000147   0.000128
     34       0.022068  -0.009093  -0.000191  -0.052005   0.092730   0.026039
     35      -0.028382   0.011256   0.000154   0.058901  -0.102383  -0.025362
     36       0.012365  -0.007572  -0.077460   0.071012   0.037911   0.021971
     37       0.000221  -0.000158   0.000069   0.000278  -0.001094   0.000416
     38       0.014647  -0.008854  -0.087949   0.078158   0.040060   0.022661
     39      -0.012115   0.007625  -0.076876  -0.071210  -0.038529  -0.021863
     40      -0.000288   0.000201   0.000086   0.000456  -0.001122   0.000671
     41       0.014321  -0.008924   0.087347   0.078346   0.040789   0.022607
     42      -0.000000  -0.000008   0.000150   0.000015  -0.000019  -0.000021
     43       0.000105   0.000045  -0.000028   0.000114  -0.000266  -0.000080
     44      -0.000155   0.000410  -0.000017   0.000578   0.000348  -0.000308
     45      -0.000018  -0.000008  -0.000231   0.000010   0.000003  -0.000024
     46      -0.000102  -0.000107  -0.000017  -0.000189   0.000319   0.000064
     47       0.000249  -0.000145  -0.000002   0.000579   0.001431   0.001421
     48      -0.000020  -0.000007  -0.000216   0.000013  -0.000007  -0.000026
     49      -0.000161  -0.000020  -0.000015   0.000074  -0.000006  -0.000246
     50      -0.000141   0.000105   0.000005  -0.000801  -0.001099  -0.001329
     51      -0.000414  -0.000768   0.000932   0.000063   0.000225  -0.001052
     52       0.013883   0.022181  -0.000331   0.013011   0.036551  -0.120247
     53      -0.022008  -0.032427   0.000336  -0.015491  -0.055132   0.155248
     54       0.012671  -0.007674  -0.077368   0.069681   0.040190   0.022674
     55       0.000223  -0.000152   0.000024   0.000267  -0.000914   0.000455
     56      -0.015150   0.009026   0.087879  -0.075904  -0.044048  -0.023932
     57       0.036600  -0.022309   0.288971   0.259019   0.143725   0.079683
     58       0.001482  -0.000828  -0.002350  -0.002734  -0.000435  -0.001978
     59       0.000853  -0.000359   0.000063  -0.002858   0.005775   0.001711
     60      -0.000409  -0.000754   0.000995   0.000084   0.000227  -0.001095
     61       0.013873   0.022054  -0.000325   0.013394   0.035506  -0.120516
     62       0.020805   0.032603  -0.000325   0.019880   0.046410  -0.158082
     63      -0.012420   0.007753  -0.076927  -0.070178  -0.040720  -0.022511
     64      -0.000298   0.000175   0.000127   0.000322  -0.000754   0.000787
     65      -0.014795   0.009136  -0.087363  -0.076585  -0.044493  -0.023699
     66      -0.000002  -0.000002  -0.000017   0.000016  -0.000004  -0.000024
     67       0.000068  -0.000001  -0.000063  -0.000069  -0.000121   0.000621
     68       0.000328  -0.000485  -0.000005  -0.000971   0.000288   0.000473
     69       0.002198   0.003744  -0.000340  -0.000955  -0.002238   0.010625
     70      -0.040991  -0.059483   0.000960  -0.045172  -0.134657   0.428368
     71       0.001394  -0.000200  -0.000013  -0.005164   0.010281   0.003410
     72       0.038411  -0.028610  -0.144593  -0.125297  -0.062752  -0.031319
     73       0.002127  -0.001639  -0.026568  -0.023699  -0.014208  -0.008039
     74      -0.000089   0.000060  -0.000011   0.000316  -0.000661  -0.000190
     75       0.003613   0.007085   0.000057  -0.003809  -0.011966   0.043581
     76      -0.058608  -0.111388   0.000223   0.019267   0.058031  -0.157073
     77      -0.000186  -0.000058  -0.000036   0.000510  -0.000958  -0.000340
     78       0.094073   0.174546   0.000259  -0.022259  -0.068272   0.200177
     79       0.259062   0.476702   0.001509  -0.049544  -0.150137   0.435418
     80       0.001020   0.000534   0.000385  -0.003820   0.006806   0.002889
     81      -0.073935  -0.138196  -0.003593   0.038627   0.111625  -0.403628
     82       0.244862   0.449339  -0.003204  -0.016467  -0.054967   0.045043
     83      -0.086344  -0.159001   0.003344  -0.005859  -0.014616   0.140397
     84      -0.073518  -0.138844  -0.003297   0.035550   0.117318  -0.401742
     85       0.245616   0.449729  -0.003308  -0.018071  -0.051085   0.046826
     86       0.086801   0.158930  -0.003293   0.004267   0.018388  -0.140188
     87      -0.178962   0.130107   0.377475   0.325616   0.166005   0.083263
     88       0.064077  -0.046910  -0.168353  -0.145799  -0.075345  -0.038398
     89       0.000543  -0.000434   0.000331  -0.001968   0.003684   0.001056
     90      -0.174573   0.124624   0.175072   0.141659   0.048251   0.012849
     91      -0.047891   0.035595   0.257461   0.226705   0.133685   0.074444
     92       0.063117  -0.044863   0.008314   0.013818   0.027722   0.023338
     93      -0.173941   0.124587   0.175027   0.140063   0.051808   0.013922
     94      -0.048186   0.035992   0.257034   0.228049   0.131154   0.073747
     95      -0.062701   0.044643  -0.008060  -0.014763  -0.025682  -0.022723
     96      -0.000322   0.000823  -0.001256   0.005079   0.002963   0.001836
     97      -0.001404  -0.000119   0.000439   0.000841   0.000866  -0.001451
     98      -0.000203   0.000832  -0.002150   0.006666   0.004688   0.003338
     99       0.000286  -0.000829  -0.001288  -0.005166  -0.002837  -0.001983
    100      -0.001040  -0.000338   0.000400  -0.000225   0.000746  -0.002673
    101      -0.000133   0.000842   0.002177   0.006836   0.004390   0.003549
    102       0.000104  -0.000673  -0.001097  -0.004837  -0.003098  -0.001999
    103      -0.000781  -0.000418   0.000240  -0.000688  -0.000000   0.000454
    104       0.000048  -0.000713  -0.002228  -0.006624  -0.004547  -0.003501
    105      -0.000133   0.000650  -0.001268   0.004882   0.003163   0.001864
    106      -0.000159  -0.000459   0.000458  -0.002052   0.005398  -0.001070
    107       0.000098  -0.000690   0.002438  -0.006563  -0.004831  -0.003287
                 78         79         80         81         82         83    
      0      -0.003117  -0.019984   0.000649   0.014712  -0.006107  -0.000002
      1      -0.012138   0.045720  -0.000253  -0.036655   0.019716   0.001755
      2       0.044032   0.003486   0.000031  -0.002774   0.001939  -0.005748
      3      -0.007285  -0.038867   0.001456   0.028554  -0.011696  -0.000066
      4       0.001061  -0.027032   0.000600   0.020564  -0.009701  -0.000513
      5      -0.063558   0.005226   0.000011  -0.003417   0.001496   0.001966
      6      -0.000684  -0.022350  -0.039444  -0.027157   0.020490  -0.000111
      7      -0.000045  -0.011215  -0.018794  -0.011374   0.007386  -0.000052
      8      -0.000971  -0.001466   0.000065   0.000867  -0.000550   0.166770
      9       0.000394   0.014610   0.024929   0.015806  -0.011280   0.000105
     10      -0.000235  -0.021990  -0.036691  -0.022064   0.014348  -0.000019
     11       0.000581   0.000370  -0.000015  -0.000222   0.000123  -0.056724
     12      -0.020467  -0.092162   0.003250   0.067677  -0.027508   0.000037
     13      -0.049710  -0.253003   0.008465   0.186416  -0.076881  -0.000289
     14       0.710564  -0.070905  -0.000006   0.047312  -0.022041  -0.020978
     15      -0.341614   0.401793  -0.012758  -0.292175   0.122470   0.012531
     16       0.281649   0.166403  -0.006517  -0.123339   0.049701  -0.004165
     17       0.008724  -0.309373   0.010420   0.226803  -0.094513  -0.003571
     18       0.475825   0.318674  -0.012758  -0.236614   0.096566  -0.011234
     19      -0.220613   0.224697  -0.006477  -0.162693   0.068782   0.005839
     20       0.112142   0.299724  -0.010431  -0.220517   0.091701  -0.001658
     21       0.000681   0.141958   0.238920   0.143743  -0.094118   0.000422
     22      -0.000235  -0.052010  -0.087219  -0.052302   0.033830  -0.000251
     23      -0.002575  -0.004048  -0.000157   0.002193  -0.001123   0.557156
     24      -0.001967  -0.111497  -0.185619  -0.111331   0.072933   0.105033
     25      -0.000011   0.201278   0.340086   0.205107  -0.134915   0.266527
     26       0.001642   0.171483   0.288058   0.173695  -0.114373   0.055639
     27      -0.000951  -0.110360  -0.185606  -0.111987   0.073189  -0.105353
     28       0.003597   0.205008   0.340317   0.203187  -0.133971  -0.265518
     29      -0.002044  -0.172214  -0.287775  -0.173005   0.113981   0.054701
     30      -0.000441   0.002232  -0.000111  -0.001605   0.000772  -0.000328
     31      -0.007121  -0.011549  -0.000001   0.009302  -0.005608   0.000446
     32      -0.013818  -0.014052   0.000025   0.011332  -0.006147   0.001077
     33       0.001059   0.002053  -0.000118  -0.001484   0.000713  -0.000222
     34       0.014797  -0.011347  -0.000001   0.009006  -0.005284  -0.001465
     35      -0.029649   0.013332  -0.000037  -0.010587   0.005410   0.003097
     36       0.000636   0.005776   0.009477   0.006739  -0.005242  -0.026730
     37       0.000334   0.001217   0.001956   0.001162  -0.000946   0.000111
     38       0.000905   0.006609   0.010968   0.007196  -0.005449  -0.062027
     39      -0.001934  -0.006026   0.008727  -0.007543   0.004951  -0.025743
     40       0.000458  -0.001199   0.001803  -0.001478   0.000746   0.000010
     41       0.004031   0.006624  -0.010136   0.008197  -0.005217   0.059775
     42      -0.000012   0.000005  -0.000002  -0.000035  -0.000053   0.000127
     43       0.001105  -0.000024  -0.000000  -0.000008  -0.000060  -0.000350
     44       0.000274   0.000306   0.000022   0.000325  -0.000074   0.000030
     45      -0.000056   0.000030   0.000046  -0.000064  -0.000068  -0.001295
     46       0.000214  -0.000074   0.000047   0.000060  -0.000010  -0.000082
     47       0.000293  -0.000050   0.000004   0.000186  -0.000273  -0.000009
     48       0.000064   0.000014   0.000046  -0.000058  -0.000072   0.001378
     49      -0.000181   0.000022   0.000069   0.000005   0.000056   0.000078
     50       0.000292  -0.000043  -0.000003  -0.000122   0.000244  -0.000011
     51      -0.000013  -0.000282  -0.000231  -0.001900  -0.003947  -0.000324
     52      -0.000617   0.001122   0.000387   0.006689   0.017731  -0.000400
     53       0.003638  -0.000801  -0.000535  -0.009356  -0.022456   0.000306
     54      -0.000296   0.005267   0.009483   0.007037  -0.005444   0.026865
     55      -0.000323   0.001260   0.001955   0.001137  -0.000929  -0.000079
     56       0.000555  -0.005636  -0.011009  -0.007756   0.005815  -0.062150
     57       0.000583   0.024060  -0.036546   0.030325  -0.019437   0.000224
     58       0.000032   0.011407  -0.017448   0.013682  -0.006442   0.000088
     59      -0.009857  -0.000087  -0.000152   0.000470  -0.000298  -0.160790
     60      -0.000084  -0.000265  -0.000241  -0.001897  -0.003933  -0.000643
     61       0.000389   0.001421   0.000382   0.006548   0.017712   0.000487
     62       0.003437   0.001945   0.000527   0.008676   0.022618   0.000385
     63       0.001618  -0.005961   0.008783  -0.007726   0.005078   0.025721
     64      -0.000479  -0.001172   0.001805  -0.001508   0.000759  -0.000082
     65       0.003715  -0.006673   0.010246  -0.008468   0.005397   0.059628
     66       0.000022  -0.000005   0.000014  -0.000026  -0.000054   0.000277
     67      -0.001400   0.000141  -0.000007  -0.000184  -0.000088   0.000399
     68       0.000302  -0.000392  -0.000013  -0.000257   0.000049   0.000014
     69       0.000179   0.001801   0.001408   0.014594   0.029424   0.000281
     70       0.000162  -0.004097  -0.001747  -0.026921  -0.067971  -0.000108
     71      -0.009044  -0.001250  -0.000005   0.000748  -0.000169   0.000489
     72      -0.000268  -0.015193   0.023129  -0.018584   0.010032  -0.000093
     73      -0.000039   0.022234  -0.034074   0.026707  -0.012503   0.000084
     74       0.002282  -0.000041   0.000034  -0.000096   0.000039   0.054311
     75       0.000215   0.002613   0.002617   0.021567   0.043033   0.000010
     76      -0.000002   0.002172   0.001454   0.015689   0.034949   0.000068
     77       0.000757   0.000295  -0.000009  -0.000166   0.000028   0.002245
     78       0.000699   0.006177   0.006059   0.052704   0.104394   0.000084
     79       0.001907   0.017214   0.016256   0.146576   0.293239   0.000168
     80      -0.014858  -0.002084   0.000028   0.001501   0.000889  -0.026436
     81       0.004181  -0.023818  -0.023812  -0.206954  -0.412306   0.013285
     82      -0.001889  -0.014341  -0.012561  -0.113486  -0.226562  -0.009455
     83      -0.000959   0.021127   0.019741   0.174688   0.350213  -0.001103
     84      -0.008536  -0.025779  -0.023733  -0.205193  -0.410858  -0.013096
     85      -0.000357  -0.013887  -0.012569  -0.113700  -0.226706   0.008864
     86      -0.004485  -0.021616  -0.019811  -0.174909  -0.351135  -0.001341
     87       0.000703  -0.144556   0.221913  -0.172511   0.083070  -0.000637
     88      -0.000296   0.052796  -0.081010   0.062987  -0.029726   0.000350
     89      -0.014344   0.000143  -0.000587   0.001373  -0.000525  -0.533493
     90       0.000466   0.113012  -0.172420   0.134331  -0.064226  -0.099663
     91      -0.005884  -0.206006   0.315645  -0.245549   0.117681  -0.255752
     92      -0.001659  -0.174860   0.267460  -0.208520   0.100267  -0.053838
     93       0.000216   0.112905  -0.172346   0.134017  -0.064229   0.101218
     94       0.006566  -0.206217   0.316249  -0.246893   0.118170   0.253662
     95      -0.001530   0.174586  -0.267303   0.208663  -0.100331  -0.051770
     96      -0.000677   0.001776   0.000450   0.001682  -0.000942   0.002951
     97       0.001107  -0.000434   0.000153   0.000794   0.000612   0.000639
     98      -0.000440   0.002279   0.000782   0.002307  -0.001345   0.004729
     99       0.000686  -0.001776   0.000304  -0.001840   0.000797   0.004635
    100       0.000390  -0.000352   0.000118   0.000773   0.000628   0.000689
    101      -0.000365   0.002251  -0.000588   0.002470  -0.001283  -0.006369
    102      -0.000706  -0.001831   0.000241  -0.001861   0.000708  -0.004405
    103       0.000778  -0.000366   0.000143   0.000417   0.000175  -0.000824
    104      -0.000395  -0.002410   0.000531  -0.002449   0.001136  -0.006709
    105       0.000740   0.001886   0.000485   0.001720  -0.000861  -0.002645
    106      -0.000282  -0.000877   0.000126   0.001009   0.000626  -0.000917
    107      -0.000507  -0.002446  -0.000849  -0.002336   0.001195   0.004933
                 84         85         86         87         88         89    
      0      -0.000212  -0.000222   0.000099   0.001304  -0.000102   0.000051
      1       0.003010   0.004255  -0.000162  -0.047112   0.009135  -0.001573
      2      -0.012366  -0.019475   0.001648   0.440252  -0.097935   0.019597
      3      -0.000266  -0.000315   0.000066   0.000787  -0.000137  -0.000031
      4      -0.000766  -0.001066   0.000013   0.008996  -0.001564   0.000264
      5      -0.000520  -0.000410   0.001118  -0.022028   0.004733  -0.001626
      6      -0.000031  -0.000051   0.000016  -0.000541   0.000079  -0.000044
      7      -0.000016  -0.000040  -0.000030   0.000223   0.000018   0.000002
      8       0.056649   0.003606   0.171571  -0.164978  -0.239482  -0.028659
      9       0.000071   0.000025   0.000019   0.000383  -0.000081  -0.000004
     10       0.000012  -0.000011   0.000018  -0.000188   0.000084   0.000030
     11      -0.043145  -0.010118   0.020209  -0.001958   0.005679   0.001296
     12      -0.000554  -0.000463   0.000187   0.000112   0.000347   0.000040
     13      -0.001974  -0.001804   0.000470   0.006208  -0.000063   0.000375
     14       0.019494   0.029288  -0.011349  -0.242225   0.040571  -0.007799
     15      -0.009427  -0.015033   0.005926   0.157108  -0.028684   0.005246
     16       0.014725   0.022044  -0.004953  -0.286750   0.057780  -0.010844
     17      -0.002170  -0.002400   0.000063   0.030538  -0.007988   0.000754
     18       0.014736   0.021012  -0.007170  -0.174342   0.030985  -0.005326
     19      -0.011471  -0.018125   0.004642   0.274711  -0.056428   0.010749
     20       0.003103   0.003869  -0.000846   0.005549  -0.004183   0.000422
     21      -0.000109   0.000656  -0.000090  -0.003691   0.001735   0.000255
     22      -0.000087  -0.000241   0.000179   0.001069  -0.000592  -0.000061
     23       0.519740   0.132492  -0.485821   0.241682   0.237351   0.020179
     24       0.143111   0.041450  -0.231912   0.147315   0.177850   0.018496
     25       0.255048   0.066484  -0.255212   0.128136   0.137203   0.012177
     26       0.042042   0.009921  -0.017232   0.000388  -0.004294  -0.001265
     27      -0.143330  -0.041822   0.232327  -0.147635  -0.178069  -0.018475
     28      -0.255162  -0.065468   0.255058  -0.131658  -0.135660  -0.011937
     29       0.041859   0.009194  -0.016894   0.001613  -0.004982  -0.001352
     30       0.000060  -0.000157  -0.000039   0.000992  -0.000335   0.000075
     31       0.001351   0.000729   0.000115  -0.046673   0.005999  -0.003190
     32       0.002540   0.004546  -0.000145  -0.121947   0.027218  -0.005504
     33       0.000014   0.000196  -0.000517  -0.001309   0.000152  -0.000053
     34      -0.003169  -0.003228  -0.000030   0.075571  -0.011465   0.004220
     35       0.006297   0.010024  -0.000405  -0.203176   0.043760  -0.008726
     36      -0.012903  -0.001450  -0.020673   0.027282   0.039609   0.005096
     37       0.000487  -0.000006  -0.000682   0.002092  -0.000440  -0.000004
     38      -0.023427  -0.002235  -0.055648   0.055849   0.081893   0.010698
     39       0.013533   0.001404  -0.020317  -0.028161  -0.040493  -0.005435
     40      -0.000410  -0.000289  -0.000730   0.001881  -0.002382  -0.000238
     41      -0.024729  -0.002424   0.054528   0.057754   0.084405   0.011589
     42       0.000055  -0.000213   0.001175  -0.000089   0.000060   0.000050
     43       0.000055  -0.000302   0.000251   0.004876  -0.003031  -0.000750
     44      -0.002268  -0.000278   0.000184   0.010767   0.027262  -0.053712
     45       0.000027  -0.000052  -0.001093  -0.000038  -0.000014  -0.000016
     46      -0.000001   0.000135   0.000057  -0.000939   0.000408   0.000004
     47      -0.000248   0.000122   0.000000   0.000274   0.000757   0.000598
     48      -0.000027   0.000052   0.001175   0.000030   0.000012   0.000015
     49       0.000008  -0.000180  -0.000040   0.001311  -0.000631  -0.000026
     50      -0.000246   0.000118  -0.000001   0.000403   0.000723   0.000599
     51      -0.000157   0.000601   0.000045   0.000256  -0.000480  -0.000191
     52      -0.004671   0.011705  -0.000198  -0.017218   0.038170   0.007322
     53       0.010397  -0.026410   0.000705   0.068516  -0.108232  -0.019001
     54       0.012882   0.001455   0.020763  -0.026984  -0.039664  -0.005075
     55      -0.000449  -0.000025   0.000699  -0.001864   0.000096   0.000029
     56      -0.023426  -0.002250  -0.055714   0.055657   0.081973   0.010683
     57      -0.000124  -0.000069   0.000037   0.000627  -0.000037   0.000022
     58      -0.000054   0.000059   0.000035  -0.000107   0.000225   0.000022
     59       0.059393   0.005949  -0.168319  -0.169488  -0.247366  -0.031576
     60       0.000137  -0.000582  -0.000976  -0.000405   0.000739   0.000120
     61       0.004780  -0.011590   0.000200   0.015822  -0.037772  -0.007328
     62       0.010526  -0.026367   0.000728   0.067412  -0.108104  -0.019049
     63      -0.013443  -0.001358   0.020383   0.027818   0.040531   0.005425
     64       0.000435   0.000250   0.000650  -0.001698   0.002166   0.000200
     65      -0.024619  -0.002378   0.054491   0.057456   0.084359   0.011575
     66      -0.000054   0.000211  -0.000789   0.000046  -0.000097   0.000060
     67      -0.000145   0.000603  -0.000243  -0.007095   0.005086  -0.000438
     68      -0.002252  -0.000281   0.000159   0.010658   0.027448  -0.053136
     69       0.000003  -0.000010   0.000234   0.000166  -0.000144   0.000019
     70      -0.000125   0.000005  -0.000026   0.000975  -0.000061   0.000034
     71      -0.022446   0.049626  -0.002757  -0.172472   0.270909   0.048113
     72       0.000021   0.000021   0.000012  -0.000459   0.000078   0.000007
     73      -0.000045   0.000027  -0.000020  -0.000070   0.000083  -0.000008
     74      -0.045695  -0.007155  -0.019706   0.001541   0.004021   0.001336
     75       0.000024  -0.000010  -0.000002  -0.000265   0.000025   0.000018
     76      -0.000028   0.000004   0.000013  -0.000565   0.000190   0.000022
     77       0.012819  -0.057782  -0.002583  -0.004692   0.001399  -0.000929
     78       0.000307  -0.001136  -0.000010   0.000396  -0.000235  -0.000026
     79       0.000349  -0.000824   0.000035   0.001992  -0.001409  -0.000187
     80      -0.158410   0.749293   0.033204   0.181837  -0.246002  -0.030695
     81       0.077258  -0.370186  -0.016296  -0.102613   0.141851   0.018607
     82      -0.042542   0.224469   0.011561   0.125343  -0.182480  -0.027694
     83      -0.013198   0.056599   0.001672  -0.007360   0.010263   0.002427
     84      -0.077895   0.371745   0.016923   0.104306  -0.141195  -0.018465
     85       0.042748  -0.224350  -0.011819  -0.124489   0.182306   0.027572
     86      -0.013646   0.058264   0.001941  -0.005201   0.010091   0.002391
     87       0.000427  -0.000586   0.000163   0.003497  -0.001705  -0.000244
     88      -0.000281   0.000195  -0.000186  -0.001361   0.000610   0.000072
     89       0.549355   0.096244   0.473278   0.197237   0.270147   0.023673
     90       0.151533   0.028541   0.226638   0.137017   0.190624   0.020556
     91       0.270274   0.047004   0.248548   0.112762   0.150259   0.013613
     92       0.044623   0.007486   0.016568  -0.001194  -0.004222  -0.001393
     93      -0.151958  -0.028388  -0.226296  -0.136039  -0.190589  -0.020621
     94      -0.269353  -0.047667  -0.248581  -0.110825  -0.151327  -0.013803
     95       0.043744   0.007857   0.016674  -0.001471  -0.003689  -0.001334
     96       0.008258   0.001202   0.000620  -0.053083  -0.135932   0.290020
     97      -0.000144  -0.001437  -0.000797   0.007401  -0.009573   0.007909
     98       0.010905   0.001722   0.002904  -0.071167  -0.184267   0.398285
     99      -0.008526  -0.000547   0.003836   0.053525   0.136233  -0.290755
    100       0.000864  -0.001952  -0.000820   0.009596  -0.006265   0.003312
    101       0.011089   0.001348  -0.006511  -0.071696  -0.183881   0.397651
    102       0.008627   0.000602  -0.003692  -0.054460  -0.134687   0.293096
    103      -0.000292   0.000579   0.000702  -0.000649  -0.003454   0.004741
    104       0.011290   0.001401  -0.007071  -0.072911  -0.182815   0.402545
    105      -0.008412  -0.001247  -0.000291   0.054266   0.135156  -0.293960
    106       0.000504   0.001273   0.000928  -0.006291   0.002015   0.003433
    107       0.011066   0.001726   0.003136  -0.072356  -0.182591   0.402024
                 90         91         92         93         94         95    
      0       0.000020  -0.000474  -0.000181  -0.000126   0.000002  -0.000064
      1       0.000104   0.017541  -0.000796  -0.000512  -0.000007  -0.000337
      2      -0.000158  -0.347837  -0.000002   0.000035   0.000001  -0.000006
      3       0.000066   0.000207  -0.019427  -0.013408  -0.000363  -0.007706
      4      -0.000166  -0.002433   0.035713   0.024606   0.000638   0.014120
      5      -0.000006   0.028828   0.000004  -0.000003   0.000004   0.000009
      6       0.001977   0.000035  -0.000014  -0.000305   0.000706   0.000637
      7       0.000118   0.000084   0.000010   0.000075  -0.000153  -0.000150
      8      -0.000248  -0.221525  -0.000001   0.000002  -0.000001   0.000000
      9      -0.000823   0.000046   0.001403   0.015427  -0.031593  -0.029021
     10       0.000200  -0.000111   0.000794   0.008433  -0.017275  -0.015920
     11       0.000004   0.010856   0.000006   0.000013  -0.000021  -0.000016
     12       0.000457  -0.000293   0.565123   0.389877   0.010202   0.223724
     13       0.001236  -0.002831  -0.164143  -0.113319  -0.002966  -0.064946
     14       0.000158   0.097599   0.000611   0.000414   0.000011   0.000245
     15      -0.000835  -0.073257  -0.165637  -0.114082  -0.002957  -0.065458
     16       0.000755   0.173465  -0.125116  -0.086198  -0.002222  -0.049408
     17       0.000095  -0.019624  -0.298919  -0.205866  -0.005319  -0.118114
     18      -0.000577   0.072861  -0.166192  -0.114546  -0.002959  -0.065653
     19       0.000495  -0.174131  -0.125261  -0.086301  -0.002207  -0.049445
     20      -0.000073  -0.017574   0.298317   0.205492   0.005272   0.117827
     21       0.000205  -0.000969  -0.006469  -0.071065   0.145192   0.133521
     22      -0.000184   0.000234  -0.022273  -0.244759   0.500691   0.460315
     23       0.000302   0.095030  -0.000008  -0.000101   0.000115   0.000133
     24       0.002760   0.117113  -0.004891  -0.054211   0.110863   0.101767
     25      -0.001315   0.063074   0.006509   0.071643  -0.146642  -0.134676
     26      -0.002311  -0.016399  -0.011652  -0.128849   0.263724   0.242127
     27       0.002380  -0.117616  -0.004867  -0.054094   0.110657   0.101578
     28      -0.001639  -0.063695   0.006476   0.071497  -0.146365  -0.134427
     29       0.002311  -0.016469   0.011615   0.128769  -0.263633  -0.242037
     30      -0.000001  -0.000801   0.000032   0.000015   0.000013   0.000014
     31       0.000103   0.051809  -0.000065  -0.000091  -0.000002  -0.000032
     32       0.000102   0.105377  -0.000162  -0.000139  -0.000007  -0.000067
     33      -0.000000   0.000761   0.000034   0.000016   0.000019   0.000015
     34       0.000078  -0.063400  -0.000065  -0.000083  -0.000003  -0.000033
     35       0.000008   0.147795   0.000092   0.000111   0.000007   0.000050
     36      -0.000412   0.034671  -0.000001  -0.000066   0.000061   0.000083
     37      -0.000007   0.000840  -0.000013  -0.000012   0.000037   0.000022
     38      -0.000389   0.071918  -0.000008  -0.000080   0.000147   0.000152
     39       0.000414  -0.034543   0.000010   0.000053   0.000065  -0.000087
     40       0.000016   0.000219   0.000011   0.000008   0.000021  -0.000008
     41      -0.000397   0.071701   0.000002  -0.000072  -0.000154   0.000149
     42      -0.000058   0.000038   0.000003  -0.000003  -0.000001  -0.000003
     43       0.000434   0.001385   0.000002   0.000001   0.000003   0.000000
     44       0.053090  -0.013032   0.000006   0.000015   0.000000  -0.000001
     45       0.000000   0.000020  -0.000006  -0.000003  -0.000009  -0.000002
     46       0.000012   0.000091   0.000009  -0.000001  -0.000010  -0.000000
     47      -0.000511  -0.002851   0.000003   0.000001   0.000000   0.000000
     48      -0.000000  -0.000004  -0.000006  -0.000004  -0.000007  -0.000003
     49       0.000001   0.000006   0.000008  -0.000000  -0.000008  -0.000001
     50       0.000516  -0.002969   0.000002  -0.000000  -0.000000   0.000001
     51      -0.000000   0.001328   0.000045  -0.000039   0.000019  -0.000023
     52      -0.000028  -0.072582  -0.000043   0.000097   0.000002   0.000035
     53      -0.000095   0.181965   0.000061  -0.000126   0.000001  -0.000050
     54      -0.000492  -0.034673  -0.000001  -0.000065   0.000063   0.000083
     55      -0.000005  -0.000930  -0.000005  -0.000012   0.000034   0.000018
     56       0.000563   0.071957   0.000015   0.000081  -0.000150  -0.000150
     57      -0.001972  -0.000097   0.000032   0.000255   0.000734  -0.000629
     58      -0.000106   0.000001  -0.000022  -0.000065  -0.000167   0.000145
     59      -0.000215  -0.219945  -0.000001  -0.000004   0.000002  -0.000002
     60       0.000000  -0.000987   0.000037  -0.000029  -0.000014  -0.000016
     61      -0.000132   0.072807  -0.000038   0.000103   0.000001   0.000032
     62      -0.000207   0.182422  -0.000045   0.000150  -0.000002   0.000046
     63       0.000487   0.034617   0.000010   0.000052   0.000067  -0.000087
     64       0.000022  -0.000112  -0.000027   0.000015   0.000033  -0.000022
     65       0.000551   0.071690   0.000005   0.000075   0.000157  -0.000147
     66       0.000051  -0.000010   0.000004  -0.000006  -0.000009  -0.000003
     67      -0.000841  -0.002005  -0.000040   0.000004  -0.000000  -0.000001
     68      -0.053605  -0.012970   0.000003  -0.000009  -0.000001   0.000005
     69      -0.000010  -0.000087  -0.000303   0.000357  -0.000037   0.000165
     70      -0.000090  -0.000283  -0.000642   0.000685   0.000018   0.000362
     71       0.000384  -0.465374  -0.000009  -0.000037  -0.000000   0.000007
     72       0.000819  -0.000028  -0.001129  -0.013794  -0.032899   0.028397
     73      -0.000188   0.000040  -0.000624  -0.007532  -0.017998   0.015578
     74       0.000000   0.010919   0.000009   0.000006   0.000005   0.000002
     75      -0.000064   0.000027  -0.015381   0.017592   0.000307   0.008303
     76       0.000182  -0.000068   0.028339  -0.032332  -0.000561  -0.015223
     77       0.000004   0.020181  -0.000004   0.000032   0.000001   0.000002
     78      -0.000451   0.000261   0.448378  -0.512136  -0.008831  -0.241228
     79      -0.001205   0.001179  -0.130218   0.148840   0.002570   0.070038
     80      -0.000258   0.184703   0.000513  -0.000610  -0.000012  -0.000261
     81       0.000886  -0.124317  -0.131373   0.149818   0.002609   0.070541
     82      -0.000865   0.228044  -0.099259   0.113203   0.001978   0.053252
     83      -0.000059  -0.030587  -0.237154   0.270382   0.004704   0.127300
     84       0.000484   0.121621  -0.131870   0.150583   0.002627   0.070801
     85      -0.000399  -0.227546  -0.099409   0.113464   0.001991   0.053314
     86       0.000071  -0.031743   0.236789  -0.270200  -0.004721  -0.127068
     87      -0.000184   0.000943   0.005219   0.063495   0.151199  -0.130676
     88       0.000193  -0.000320   0.017908   0.218699   0.521378  -0.450495
     89       0.000291   0.090542   0.000000   0.000020   0.000128  -0.000095
     90      -0.002389   0.116150   0.003989   0.048399   0.115406  -0.099576
     91       0.001646   0.062583  -0.005263  -0.063974  -0.152650   0.131763
     92       0.002313  -0.016411   0.009457   0.115049   0.274523  -0.236890
     93      -0.002739  -0.115569   0.004016   0.048371   0.115279  -0.099450
     94       0.001367  -0.062035  -0.005297  -0.063943  -0.152505   0.131616
     95      -0.002320  -0.016331  -0.009532  -0.115164  -0.274652   0.236974
     96       0.294853   0.086635   0.000029   0.000033   0.000064  -0.000002
     97       0.008216   0.002160   0.000025  -0.000031  -0.000021   0.000034
     98       0.404946   0.112115  -0.000033  -0.000034   0.000004   0.000004
     99      -0.295676  -0.086946  -0.000007  -0.000043   0.000076  -0.000003
    100       0.003528   0.000923   0.000063   0.000023  -0.000017  -0.000036
    101       0.404362   0.111970   0.000009  -0.000035  -0.000005   0.000003
    102      -0.292013   0.087252   0.000025  -0.000014   0.000087   0.000014
    103      -0.004928   0.002687  -0.000016  -0.000023  -0.000025  -0.000030
    104      -0.401055   0.112888  -0.000026   0.000015  -0.000015  -0.000015
    105       0.292824  -0.087434  -0.000003   0.000001   0.000091  -0.000022
    106      -0.003116   0.000268   0.000040  -0.000030  -0.000015   0.000033
    107      -0.400502   0.112714   0.000018   0.000012   0.000017  -0.000019
                 96         97         98         99        100        101    
      0       0.001020   0.000450   0.000039   0.000073   0.000002  -0.000000
      1      -0.001133  -0.000492  -0.000052  -0.000105  -0.000001   0.000002
      2      -0.000001   0.000006   0.000004   0.000004   0.000009  -0.000370
      3       0.079667   0.035131   0.002560   0.005204   0.000009   0.000008
      4       0.015988   0.007068   0.000529   0.001050   0.000003   0.000007
      5       0.000065   0.000025   0.000019  -0.000006   0.000003   0.000034
      6      -0.000000  -0.000048  -0.000610   0.001106   0.000003  -0.000001
      7      -0.000012  -0.000065  -0.000539   0.000977   0.000000   0.000002
      8       0.000001   0.000003   0.000001  -0.000004   0.001717  -0.002097
      9       0.000235   0.001102   0.008483  -0.015466  -0.000011   0.000010
     10      -0.001237  -0.005460  -0.041926   0.076298   0.000064  -0.000041
     11       0.000009  -0.000010   0.000049  -0.000073   0.066318  -0.064722
     12      -0.559318  -0.246342  -0.017825  -0.036486  -0.000036   0.000039
     13       0.177353   0.078090   0.005751   0.011611   0.000012  -0.000031
     14      -0.000611  -0.000272  -0.000010  -0.000040  -0.000042  -0.000017
     15      -0.200351  -0.088425  -0.006523  -0.013062   0.000030  -0.000039
     16      -0.177616  -0.078385  -0.005722  -0.011602   0.000019   0.000025
     17      -0.411430  -0.181571  -0.013319  -0.026871   0.000101  -0.000059
     18      -0.201528  -0.088978  -0.006512  -0.013204  -0.000097  -0.000074
     19      -0.178164  -0.078637  -0.005689  -0.011697  -0.000073  -0.000096
     20       0.411441   0.181605   0.013227   0.027008   0.000217   0.000082
     21       0.002671   0.012091   0.093109  -0.169277  -0.000138   0.000061
     22       0.008773   0.038300   0.294046  -0.534710  -0.000452   0.000260
     23       0.000003  -0.000006   0.000095  -0.000142   0.010100  -0.009779
     24      -0.002809  -0.012177  -0.094071   0.171275  -0.181604   0.177689
     25       0.003100   0.013768   0.106162  -0.193312   0.222054  -0.217141
     26      -0.006392  -0.028116  -0.217039   0.395164  -0.405452   0.396574
     27      -0.002770  -0.012197  -0.093636   0.170572   0.181905  -0.177878
     28       0.003052   0.013795   0.105622  -0.192438  -0.222364   0.217324
     29       0.006319   0.028197   0.216362  -0.394139  -0.406715   0.397569
     30       0.000001  -0.000003   0.000002  -0.000006   0.000008  -0.000012
     31       0.000072   0.000025   0.000020   0.000014   0.000008   0.000050
     32       0.000134   0.000053   0.000002   0.000015   0.000012   0.000069
     33      -0.000009  -0.000006  -0.000000  -0.000007  -0.000034  -0.000001
     34       0.000069   0.000025   0.000016   0.000016  -0.000009  -0.000050
     35      -0.000176  -0.000066   0.000007  -0.000025   0.000012   0.000089
     36      -0.000018  -0.000004   0.000040  -0.000065   0.000062   0.000080
     37      -0.000001  -0.000007  -0.000001  -0.000009  -0.000074   0.000077
     38       0.000009  -0.000000   0.000071  -0.000122  -0.000285   0.000403
     39      -0.000012   0.000011   0.000069   0.000034   0.000061  -0.000078
     40       0.000008  -0.000002  -0.000040  -0.000019  -0.000079  -0.000071
     41      -0.000002   0.000010  -0.000127  -0.000064   0.000288   0.000396
     42      -0.000005   0.000001   0.000003  -0.000001   0.000081   0.000000
     43       0.000006  -0.000000   0.000013  -0.000001   0.000019   0.000016
     44       0.000003   0.000000  -0.000001  -0.000001  -0.000001  -0.000022
     45       0.000007  -0.000004  -0.000007   0.000003  -0.000004   0.000000
     46      -0.000007   0.000004  -0.000007   0.000004   0.000007  -0.000001
     47       0.000002   0.000001  -0.000000  -0.000001   0.000000  -0.000002
     48       0.000006  -0.000002  -0.000007   0.000003   0.000009  -0.000000
     49      -0.000007   0.000002   0.000004  -0.000001  -0.000005   0.000001
     50       0.000001  -0.000001   0.000000   0.000001   0.000000  -0.000002
     51       0.000001   0.000005   0.000002   0.000008   0.000013   0.000043
     52       0.000035  -0.000066   0.000008  -0.000021   0.000007  -0.000030
     53      -0.000088   0.000169   0.000015   0.000022  -0.000008   0.000183
     54      -0.000019  -0.000002   0.000040  -0.000063  -0.000058  -0.000080
     55       0.000000  -0.000007  -0.000010   0.000001   0.000071  -0.000083
     56      -0.000004  -0.000004  -0.000071   0.000124  -0.000285   0.000402
     57       0.000027   0.000056  -0.001111  -0.000599  -0.000000  -0.000003
     58       0.000030   0.000077  -0.000974  -0.000529  -0.000001   0.000003
     59      -0.000002   0.000001   0.000002  -0.000001  -0.001742  -0.002017
     60       0.000019  -0.000035   0.000005  -0.000008  -0.000055  -0.000026
     61       0.000037  -0.000068   0.000004  -0.000021  -0.000008   0.000030
     62       0.000093  -0.000173  -0.000023  -0.000018  -0.000008   0.000182
     63      -0.000011   0.000013   0.000069   0.000034  -0.000056   0.000079
     64       0.000002   0.000008   0.000007   0.000011   0.000073   0.000073
     65       0.000006  -0.000006   0.000126   0.000066   0.000288   0.000397
     66      -0.000003   0.000002   0.000005   0.000000  -0.000071  -0.000001
     67      -0.000004   0.000000   0.000014  -0.000005  -0.000018  -0.000018
     68       0.000002  -0.000003   0.000001   0.000007  -0.000001  -0.000023
     69       0.000431  -0.000952  -0.000023  -0.000106   0.000004  -0.000002
     70      -0.000510   0.001126   0.000034   0.000125  -0.000001   0.000002
     71      -0.000006   0.000004  -0.000004  -0.000006  -0.000024  -0.000900
     72      -0.000494  -0.001272   0.015479   0.008422  -0.000001  -0.000001
     73       0.002378   0.006336  -0.076431  -0.041501  -0.000033  -0.000044
     74       0.000015  -0.000005   0.000039   0.000040  -0.066430  -0.064459
     75       0.035510  -0.079441  -0.002084  -0.006238   0.000000   0.000018
     76       0.007113  -0.015957  -0.000410  -0.001267  -0.000001   0.000004
     77       0.000004  -0.000037   0.000007   0.000030  -0.000520  -0.020868
     78      -0.249486   0.557471   0.014649   0.043682   0.000024  -0.000010
     79       0.079119  -0.176740  -0.004588  -0.013941  -0.000008   0.000026
     80      -0.000291   0.000622   0.000018   0.000067  -0.000022  -0.003220
     81      -0.089162   0.199790   0.005147   0.015641   0.001680   0.069795
     82      -0.079060   0.177123   0.004633   0.013857   0.001375   0.057142
     83      -0.183140   0.410284   0.010655   0.032133   0.003027   0.128013
     84      -0.089817   0.201099   0.005267   0.015959  -0.001653  -0.070062
     85      -0.079409   0.177752   0.004726   0.014081  -0.001365  -0.057207
     86       0.183385  -0.410503  -0.010853  -0.032549   0.002987   0.127785
     87      -0.005309  -0.013983   0.169667   0.092032   0.000106   0.000166
     88      -0.016594  -0.044474   0.535907   0.290734   0.000344   0.000479
     89      -0.000007  -0.000021   0.000131   0.000089  -0.010111  -0.009760
     90       0.005267   0.014208  -0.171434  -0.093196   0.182050   0.176999
     91      -0.006021  -0.016011   0.193471   0.105195  -0.222572  -0.216285
     92       0.012234   0.032743  -0.395519  -0.215017   0.406415   0.395017
     93       0.005334   0.014142  -0.170894  -0.092811  -0.182086  -0.177098
     94      -0.006103  -0.015926   0.192814   0.104721   0.222599   0.216394
     95      -0.012402  -0.032631   0.394893   0.214467   0.407136   0.395870
     96      -0.000008   0.000027  -0.000029   0.000009  -0.000177   0.000012
     97      -0.000032  -0.000016  -0.000071  -0.000004   0.000003   0.000003
     98       0.000037  -0.000007  -0.000043  -0.000038   0.000170   0.000251
     99      -0.000047  -0.000000  -0.000021   0.000008  -0.000163  -0.000015
    100       0.000003   0.000036  -0.000059   0.000036  -0.000001  -0.000013
    101      -0.000051   0.000024   0.000021  -0.000056  -0.000157   0.000256
    102      -0.000040  -0.000031  -0.000023   0.000049   0.000181   0.000023
    103      -0.000009   0.000025  -0.000015   0.000046   0.000006   0.000032
    104       0.000052  -0.000004  -0.000019   0.000021  -0.000169   0.000251
    105      -0.000037   0.000054  -0.000034  -0.000032   0.000192  -0.000029
    106      -0.000027  -0.000026  -0.000059   0.000000   0.000009  -0.000022
    107      -0.000055   0.000037   0.000037   0.000005   0.000186   0.000243
                102        103        104        105        106        107    
      0      -0.000003   0.000003  -0.000000   0.000000  -0.000004   0.000142
      1       0.000004   0.000013  -0.000038   0.000004  -0.000001  -0.000003
      2      -0.000201  -0.001732   0.000113   0.000641  -0.000002  -0.000002
      3      -0.000009   0.000051  -0.000004  -0.000009  -0.000008   0.000137
      4       0.000002   0.000023   0.000007  -0.000004   0.000001   0.000001
      5       0.000502  -0.097114  -0.000021  -0.000119   0.000001  -0.000014
      6       0.000003  -0.000004   0.000005  -0.000002  -0.000043   0.000102
      7       0.000004   0.000000  -0.000003  -0.000002   0.000002   0.000003
      8       0.000241  -0.000111   0.000088   0.000493   0.000082   0.000247
      9      -0.000002  -0.000001   0.000002  -0.000000  -0.000006   0.000141
     10       0.000028  -0.000015   0.000006   0.000005  -0.000005  -0.000003
     11       0.014397   0.000151  -0.000014  -0.000070   0.000034   0.000496
     12       0.000129   0.000483  -0.000003  -0.000035  -0.000052   0.000087
     13      -0.000074  -0.000107   0.000013   0.000043   0.000024   0.000024
     14       0.000171  -0.018947   0.000002   0.000008  -0.000033  -0.000117
     15      -0.001341   0.313285   0.000004   0.000058   0.000014   0.000009
     16      -0.001033   0.255531  -0.000025  -0.000025  -0.000017  -0.000010
     17      -0.002385   0.576141   0.000062   0.000088  -0.000014   0.000022
     18       0.001325  -0.314409   0.000014   0.000029  -0.000016   0.000266
     19       0.001048  -0.255783  -0.000008   0.000058  -0.000006  -0.000023
     20      -0.002421   0.574915  -0.000034   0.000099   0.000020   0.000067
     21      -0.000116   0.000063   0.000022   0.000046  -0.000051   0.000094
     22      -0.000259   0.000131   0.000030   0.000024  -0.000034  -0.000044
     23       0.002180   0.000117   0.000012   0.000028   0.000057   0.000520
     24      -0.039497  -0.000136   0.000028   0.000005  -0.000132   0.000020
     25       0.048313   0.000097  -0.000054  -0.000040   0.000112  -0.000025
     26      -0.088269  -0.000294  -0.000004   0.000039  -0.000034   0.000646
     27       0.039601   0.000098   0.000020  -0.000011  -0.000016   0.000126
     28      -0.048428  -0.000068  -0.000025   0.000094  -0.000029   0.000120
     29      -0.088640  -0.000219   0.000032   0.000080  -0.000069   0.000634
     30      -0.000005  -0.000120   0.000005   0.000036   0.000000   0.000253
     31       0.000091   0.000118  -0.000009  -0.000019   0.000000  -0.000001
     32       0.000070   0.000699  -0.000033  -0.000104  -0.000001  -0.000001
     33       0.000003   0.000108   0.000000   0.000009  -0.000028  -0.000008
     34      -0.000094  -0.000122  -0.000002   0.000021   0.000002   0.000000
     35       0.000073   0.000741  -0.000018  -0.000200  -0.000003  -0.000002
     36      -0.000004   0.000022  -0.000026   0.000024  -0.000023   0.000336
     37       0.000003   0.000094   0.000002   0.000018  -0.000001  -0.000001
     38      -0.000063   0.000132  -0.000031  -0.000050  -0.000041   0.000318
     39      -0.000005  -0.000020   0.000023  -0.000035  -0.000023   0.000335
     40       0.000058   0.000081  -0.000004   0.000001   0.000001  -0.000004
     41      -0.000055   0.000132  -0.000025  -0.000026   0.000041  -0.000317
     42      -0.000009  -0.000003   0.000016  -0.000032  -0.000168  -0.075680
     43       0.000071   0.000303  -0.000265   0.000390  -0.000002  -0.000390
     44      -0.000001   0.000088  -0.027337   0.039557  -0.000001  -0.000050
     45      -0.000004  -0.000000  -0.000001  -0.000004   0.000005   0.000329
     46      -0.000005   0.000132  -0.000002   0.000002   0.000000  -0.000002
     47      -0.000003   0.000099  -0.000029  -0.000016  -0.000000   0.000000
     48       0.000004   0.000000   0.000001   0.000005   0.000024  -0.000003
     49       0.000001  -0.000128  -0.000002  -0.000004   0.000002   0.000000
     50      -0.000003   0.000098   0.000022  -0.000025  -0.000000   0.000000
     51       0.000108   0.000016  -0.000010  -0.000060  -0.000001   0.000255
     52      -0.000009   0.000021   0.000006   0.000026   0.000000  -0.000002
     53       0.000505  -0.000024  -0.000055  -0.000206   0.000001   0.000000
     54       0.000002  -0.000019  -0.000033  -0.000013   0.000039  -0.000022
     55       0.000009  -0.000117   0.000001   0.000011   0.000001   0.000000
     56      -0.000062   0.000130   0.000011  -0.000056  -0.000048   0.000307
     57      -0.000003   0.000002  -0.000005   0.000002  -0.000042   0.000102
     58       0.000003   0.000001  -0.000003  -0.000005   0.000003  -0.000000
     59       0.000305  -0.000048   0.000044   0.000257  -0.000078  -0.000252
     60      -0.000107  -0.000001   0.000002   0.000004  -0.000026  -0.000017
     61       0.000009  -0.000026  -0.000004  -0.000028   0.000002   0.000001
     62       0.000505  -0.000030  -0.000022  -0.000210   0.000003   0.000003
     63       0.000007   0.000016   0.000035   0.000025   0.000039  -0.000021
     64      -0.000045  -0.000093  -0.000005  -0.000007   0.000002  -0.000001
     65      -0.000055   0.000131   0.000017  -0.000033   0.000048  -0.000306
     66       0.000010   0.000005  -0.000026  -0.000009  -0.071879  -0.000175
     67      -0.000082  -0.000294   0.000477   0.000323  -0.000436   0.000003
     68      -0.000002   0.000089   0.039580   0.027306  -0.000060   0.000002
     69       0.000001  -0.000005   0.000005   0.000006  -0.000014   0.000139
     70       0.000007   0.000005   0.000033  -0.000006  -0.000000  -0.000002
     71      -0.002597  -0.000453   0.000116   0.000635   0.000001   0.000001
     72       0.000001   0.000002  -0.000002   0.000001  -0.000006   0.000141
     73      -0.000016  -0.000002  -0.000011  -0.000006  -0.000003  -0.000007
     74       0.015081   0.000176  -0.000007  -0.000039  -0.000034  -0.000496
     75       0.000028   0.000002   0.000004   0.000007  -0.000010   0.000141
     76       0.000005   0.000002  -0.000012   0.000002   0.000002  -0.000000
     77      -0.091448  -0.000646  -0.000011  -0.000057   0.000001   0.000012
     78       0.000446  -0.000010   0.000003   0.000030  -0.000050   0.000093
     79      -0.000089  -0.000020  -0.000018  -0.000044   0.000021   0.000024
     80      -0.013846  -0.000393   0.000018   0.000053   0.000039   0.000113
     81       0.306108   0.001278   0.000012   0.000024  -0.000021   0.000279
     82       0.250393   0.001215   0.000003  -0.000076  -0.000007  -0.000021
     83       0.561462   0.002068  -0.000034   0.000028  -0.000022  -0.000059
     84      -0.306918  -0.001326  -0.000015  -0.000015   0.000006   0.000011
     85      -0.250402  -0.001234   0.000026   0.000081  -0.000019  -0.000013
     86       0.559774   0.002100   0.000051  -0.000025   0.000017  -0.000016
     87       0.000082  -0.000022  -0.000019  -0.000037  -0.000053   0.000092
     88       0.000148   0.000008  -0.000030  -0.000007  -0.000034  -0.000052
     89       0.002222  -0.000016   0.000018   0.000054  -0.000058  -0.000520
     90      -0.041400  -0.000207  -0.000018   0.000020  -0.000016   0.000124
     91       0.050623   0.000383   0.000019  -0.000092  -0.000026   0.000116
     92      -0.092451  -0.000389   0.000046   0.000118   0.000067  -0.000634
     93       0.041344   0.000191  -0.000029  -0.000018  -0.000133   0.000018
     94      -0.050550  -0.000357   0.000047   0.000042   0.000116  -0.000028
     95      -0.092447  -0.000346   0.000001   0.000084   0.000036  -0.000643
     96       0.000037  -0.000044   0.488765   0.337513   0.570822  -0.001509
     97      -0.000018  -0.000468  -0.000687  -0.000433  -0.001181   0.000004
     98      -0.000007   0.000214  -0.314286  -0.217021  -0.414441   0.000822
     99      -0.000004   0.000046  -0.488296  -0.337143   0.569761  -0.001566
    100       0.000005  -0.000397  -0.006277  -0.004345   0.007715  -0.000015
    101       0.000000   0.000203  -0.315345  -0.217744   0.415380  -0.000861
    102       0.000008  -0.000051  -0.337457   0.488650   0.001217   0.571845
    103       0.000016   0.000417   0.000282  -0.000447  -0.000005  -0.001044
    104      -0.000000   0.000209   0.216974  -0.314201  -0.000782  -0.412923
    105      -0.000056   0.000047   0.337205  -0.488414   0.001234   0.570550
    106       0.000035   0.000463   0.004256  -0.006130   0.000014   0.007537
    107      -0.000020   0.000222   0.217769  -0.315421   0.000792   0.413720


-----------
IR SPECTRUM
-----------

 Mode    freq (cm**-1)   T**2         TX         TY         TZ
-------------------------------------------------------------------
  10:        47.57    0.229516  (  0.062485  -0.169215  -0.443822)
  11:        55.05    7.346322  ( -2.700135   0.008877   0.235618)
  12:        63.15    1.151593  (  1.024914  -0.039288  -0.315596)
  13:        68.75    0.194544  ( -0.090688  -0.143943  -0.406940)
  14:        71.44    4.263176  (  0.046741  -2.064207  -0.006352)
  15:        89.75    5.624830  (  2.369156   0.074766   0.079628)
  16:       111.00    0.082982  (  0.049703  -0.112215  -0.260614)
  17:       112.18    0.125954  (  0.218514  -0.008311  -0.279530)
  18:       152.02    0.560206  (  0.344627  -0.021875   0.664048)
  19:       163.69    0.710635  ( -0.012016  -0.602414   0.589565)
  20:       165.63    1.538382  ( -0.016713   0.101258   1.236062)
  21:       199.49    0.618977  ( -0.057746  -0.106516  -0.777366)
  22:       202.16    0.001607  (  0.003036  -0.001492  -0.039946)
  23:       203.47    7.575638  ( -0.003616  -0.019510  -2.752316)
  24:       209.03    0.160918  ( -0.270161  -0.110686  -0.275100)
  25:       228.43    0.122216  ( -0.242236   0.025965   0.250725)
  26:       238.58    1.093927  (  1.041497  -0.075196  -0.059634)
  27:       241.79    0.103860  (  0.000803  -0.225465   0.230272)
  28:       244.54    0.508584  (  0.147530   0.697210  -0.026790)
  29:       281.03    1.596409  ( -0.006779  -0.431997  -1.187325)
  30:       303.40    9.416117  ( -0.022352  -1.920570   2.393121)
  31:       310.40    1.247443  ( -1.108141  -0.019431  -0.138166)
  32:       310.43    0.638431  ( -0.787444   0.074141   0.113429)
  33:       315.58    0.096611  ( -0.010552   0.093465   0.296250)
  34:       325.04   28.922902  ( -0.036749   1.149900   5.253502)
  35:       345.16    0.008260  ( -0.004450  -0.045845  -0.078345)
  36:       348.97    6.576927  (  2.562099  -0.089862   0.067100)
  37:       364.33    1.981446  (  0.029169   1.406550  -0.047022)
  38:       367.95   11.979532  (  0.016245   0.872989  -3.349203)
  39:       372.26    0.143423  (  0.210297  -0.039915   0.312419)
  40:       383.19   33.652215  ( -0.058351  -5.796408  -0.224654)
  41:       395.52   42.249089  ( -6.499255   0.077885  -0.052054)
  42:       465.28   26.304656  (  5.127016  -0.001156  -0.135500)
  43:       563.82    0.040395  ( -0.037718   0.197414  -0.000249)
  44:       572.33    0.036487  (  0.014763   0.106528   0.157862)
  45:       574.18    0.163031  ( -0.177963   0.006593  -0.362376)
  46:       583.29    0.070299  (  0.028346  -0.215998  -0.151129)
  47:       595.97    0.344193  (  0.510973  -0.277321   0.078689)
  48:       606.76    1.938555  ( -1.077112   0.834637  -0.285947)
  49:       608.94    5.278777  (  1.427444   1.795917   0.125944)
  50:       679.95   84.427134  (  9.178060  -0.435953  -0.017256)
  51:       689.66   82.739908  (  0.159065   9.092190  -0.216057)
  52:       700.12    0.120163  ( -0.099154   0.322140   0.080977)
  53:       710.33    0.271531  ( -0.232018   0.363228   0.292855)
  54:       761.36    4.214488  (  0.795171   1.877600  -0.238351)
  55:       904.96   81.394409  ( -0.079790   9.021232  -0.073563)
  56:       917.17    3.152364  (  1.734681   0.378305   0.011541)
  57:       930.40    0.179035  (  0.040245  -0.387877   0.164214)
  58:       937.04   16.306327  (  0.360966  -3.955170   0.729838)
  59:       949.40  178.188459  (  0.028856 -13.347832   0.151673)
  60:       957.94    0.039851  ( -0.056451   0.153693   0.114204)
  61:       962.32    4.049631  ( -0.158075   1.993790   0.222364)
  62:      1010.95    0.001109  (  0.008392  -0.021368   0.024121)
  63:      1011.23    7.493650  ( -0.005113   0.018455  -2.737386)
  64:      1014.97    2.074932  (  0.014113   0.041623  -1.439792)
  65:      1021.27    2.805811  ( -1.053320   0.902632   0.938926)
  66:      1021.44    0.997729  ( -0.201206  -0.015248  -0.978270)
  67:      1022.11   10.778358  (  1.905347   2.671082   0.115453)
  68:      1022.53    3.199376  (  1.403151  -1.072134   0.284729)
  69:      1091.59    6.558846  ( -2.284663   1.155657   0.060160)
  70:      1328.91   50.936386  (  7.134777  -0.177009  -0.003303)
  71:      1329.69    4.956284  ( -0.136765  -2.216762  -0.153448)
  72:      1331.41   17.017451  ( -0.279108  -4.103614  -0.316077)
  73:      1334.02    0.934439  ( -0.169489  -0.928496   0.208824)
  74:      1373.58  401.629174  ( 19.962556   1.767913   0.000373)
  75:      1374.50   30.902483  ( -0.417758   5.525317   0.445913)
  76:      1380.30  271.517156  (  1.468484 -16.397047  -0.705374)
  77:      1390.67  110.452116  ( -0.972540  10.462907  -0.183995)
  78:      1424.15   13.234754  (  0.348204  -0.859063   3.517886)
  79:      1431.54    9.250110  (  1.783095   2.431571  -0.397679)
  80:      1431.84   31.947714  ( -4.649484   3.214022  -0.009041)
  81:      1432.24   20.292659  ( -2.109315  -3.973569   0.232802)
  82:      1433.61   10.413501  ( -1.317199  -2.944526  -0.090840)
  83:      1442.20    1.042299  (  0.007659   0.078420  -1.017885)
  84:      1457.04   45.011382  ( -0.002305   0.202615   6.705992)
  85:      1461.29   29.148625  (  0.002287   0.239111   5.393649)
  86:      1491.17    0.917756  (  0.002062  -0.010158  -0.957940)
  87:      1521.88    4.228474  (  0.023299  -1.387146  -1.517813)
  88:      1534.77   49.781662  (  0.001677   0.233778  -7.051738)
  89:      1560.67   54.894887  ( -0.014833   0.048778   7.408933)
  90:      1562.21    0.002726  ( -0.000322   0.040538   0.032898)
  91:      1614.97  166.006007  ( -0.017882   0.504400 -12.874442)
  92:      2978.23   19.874510  ( -0.855662   4.374931   0.048235)
  93:      2978.27    0.304216  (  0.216930  -0.505563   0.039546)
  94:      2978.32   19.409032  ( -4.328801  -0.818811  -0.007993)
  95:      2978.42    0.008263  ( -0.023671  -0.083502   0.027022)
  96:      3047.17   12.610949  (  2.911551   2.032869   0.035541)
  97:      3047.18    1.867474  ( -1.142889  -0.748113  -0.040056)
  98:      3047.41   13.078836  (  2.107730  -2.938749   0.008075)
  99:      3047.42    1.139214  ( -0.644066   0.849348   0.054775)
 100:      3080.15    0.001065  (  0.000591   0.000979  -0.032616)
 101:      3080.22   17.286541  (  0.002319   0.002665  -4.157707)
 102:      3080.25    2.829584  (  0.000789   0.019552  -1.682023)
 103:      3091.46    5.437277  (  0.000587   0.016662  -2.331737)
 104:      3712.78    0.314519  (  0.003165  -0.016186  -0.560577)
 105:      3713.06   11.213636  (  0.002836  -0.060951  -3.348121)
 106:      3829.37   71.864486  (  8.477086   0.058555   0.008364)
 107:      3847.60   74.374874  (  8.623886   0.058812  -0.003626)

--------------
RAMAN SPECTRUM
--------------

 Mode    freq (cm**-1)   Activity   Depolarization
-------------------------------------------------------------------
  10:        47.57      0.158946      0.748885
  11:        55.05      1.550033      0.750000
  12:        63.15      8.850836      0.749999
  13:        68.75      0.007296      0.749681
  14:        71.44      0.019860      0.749904
  15:        89.75      0.923413      0.749997
  16:       111.00      0.026001      0.748968
  17:       112.18      0.434056      0.745121
  18:       152.02      2.878640      0.749999
  19:       163.69      2.101706      0.749969
  20:       165.63      0.393653      0.749965
  21:       199.49      0.000466      0.749990
  22:       202.16      0.719126      0.748588
  23:       203.47      0.015110      0.748466
  24:       209.03      0.197617      0.747236
  25:       228.43      0.009417      0.749876
  26:       238.58      0.040241      0.729062
  27:       241.79      0.006310      0.737086
  28:       244.54      0.000375      0.748786
  29:       281.03      0.016651      0.570841
  30:       303.40      0.062886      0.712947
  31:       310.40      3.561510      0.749560
  32:       310.43      7.211185      0.749694
  33:       315.58     24.792243      0.227693
  34:       325.04      0.134976      0.636425
  35:       345.16     24.506712      0.023932
  36:       348.97      0.284645      0.749950
  37:       364.33      0.112942      0.747234
  38:       367.95      0.041884      0.702620
  39:       372.26      0.458391      0.749715
  40:       383.19      0.080570      0.749569
  41:       395.52      0.011666      0.749793
  42:       465.28      0.452677      0.749892
  43:       563.82      0.790598      0.746082
  44:       572.33      0.054578      0.736270
  45:       574.18      0.643455      0.749999
  46:       583.29      0.019531      0.690637
  47:       595.97      0.591985      0.467697
  48:       606.76      1.229839      0.745520
  49:       608.94      0.003044      0.737964
  50:       679.95      0.000124      0.706228
  51:       689.66      0.077273      0.375571
  52:       700.12      0.228091      0.699296
  53:       710.33      0.246200      0.748967
  54:       761.36      0.859668      0.535158
  55:       904.96      2.470636      0.749070
  56:       917.17      0.000035      0.473202
  57:       930.40     23.232050      0.237636
  58:       937.04      7.250967      0.062456
  59:       949.40      3.292319      0.732127
  60:       957.94      1.218174      0.740691
  61:       962.32     19.106643      0.126742
  62:      1010.95      0.977293      0.750000
  63:      1011.23      0.000426      0.749351
  64:      1014.97      0.487175      0.749979
  65:      1021.27      0.687386      0.238935
  66:      1021.44      0.563273      0.711498
  67:      1022.11      0.002675      0.609526
  68:      1022.53      0.327482      0.724823
  69:      1091.59      0.532315      0.481581
  70:      1328.91      0.000033      0.736924
  71:      1329.69      0.858183      0.749719
  72:      1331.41      0.717004      0.645980
  73:      1334.02      2.205992      0.552013
  74:      1373.58      0.000070      0.362862
  75:      1374.50      9.678962      0.580630
  76:      1380.30      3.322493      0.069174
  77:      1390.67      6.959230      0.160916
  78:      1424.15      8.074227      0.743752
  79:      1431.54     18.175913      0.749985
  80:      1431.84      0.035742      0.746583
  81:      1432.24      4.590794      0.733125
  82:      1433.61      2.307179      0.718490
  83:      1442.20      5.697677      0.749963
  84:      1457.04      0.424435      0.747105
  85:      1461.29      6.498715      0.749668
  86:      1491.17     13.784746      0.750000
  87:      1521.88      3.151726      0.719256
  88:      1534.77      1.495570      0.746437
  89:      1560.67      0.033430      0.700300
  90:      1562.21     12.220194      0.273278
  91:      1614.97      0.077938      0.541874
  92:      2978.23     11.772113      0.035830
  93:      2978.27    880.335506      0.030269
  94:      2978.32      0.741083      0.026297
  95:      2978.42    180.385841      0.285232
  96:      3047.17     20.042344      0.581417
  97:      3047.18    131.963295      0.572041
  98:      3047.41     15.576109      0.663520
  99:      3047.42    173.659527      0.651554
 100:      3080.15    145.402603      0.750000
 101:      3080.22      3.633960      0.749963
 102:      3080.25     70.347893      0.750000
 103:      3091.46     71.448531      0.749996
 104:      3712.78    829.904421      0.199675
 105:      3713.06     27.834350      0.199505
 106:      3829.37     56.417279      0.749999
 107:      3847.60     56.053999      0.750000

The first frequency considered to be a vibration is 10
The total number of vibrations considered is 98


--------------------------
THERMOCHEMISTRY AT 298.15K
--------------------------

Temperature         ... 298.15 K
Pressure            ... 1.00 atm
Total Mass          ... 478.03 AMU

Throughout the following assumptions are being made:
  (1) The electronic state is orbitally nondegenerate
  (2) There are no thermally accessible electronically excited states
  (3) Hindered rotations indicated by low frequency modes) are not
      treated as such but are treated as vibrations and this may
      case some error
  (4) All equations used are the standard statistical mechanics
      equations for an ideal gas
  (5) All vibrations are strinctly harmonic


------------
INNER ENERGY
------------

The inner energy is: U= E(el) + E(ZPE) + E(vib) + E(rot) + E(trans)
    E(el)   - is the total energy from the electronic structure calculation
              = E(kin-el) + E(nuc-el) + E(el-el) + E(nuc-nuc)
    E(ZPE)  - the the zero temperature vibrational energy from the frequency calculation
    E(vib)  - the the finite temperature correction to E(ZPE) due to population
              of excietd vibrational states
    E(rot)  - is the rotational thermal energy
    E(trans)- is the translational thermal energy

Summary of contributions to the inner energy U:
Electronic energy                ... -10743.99479247 Eh
Zero point energy                ...      0.25824923 Eh     162.05 kcal/mol
Thermal vibrational correction   ...      0.01992664 Eh      12.50 kcal/mol
Thermal rotational correction    ...      0.00141627 Eh       0.89 kcal/mol
Thermal translational correction ...      0.00141627 Eh       0.89 kcal/mol
-----------------------------------------------------------------------
Total thermal energy                 -10743.71378405 Eh


Summary of corrections to the electronic energy:
(perhaps to be used in another calculation)
Total thermal correction                  0.02275919 Eh      14.28 kcal/mol
Non-thermal (ZPE) correction              0.25824923 Eh     162.05 kcal/mol
-----------------------------------------------------------------------
Total correction                          0.28100842 Eh     176.34 kcal/mol


--------
ENTHALPY
--------

The enthalpy is H = U + kB*T
                kB is Boltzmann's constant
Total free energy                 ... -10743.71378405 Eh 
Thermal Enthalpy correction       ...      0.00094421 Eh       0.59 kcal/mol
-----------------------------------------------------------------------
Total Enthalpy                    ... -10743.71283984 Eh


-------
ENTROPY
-------

The entropy contributions are T*S = T*(S(el)+S(vib)+S(rot)+S(trans)
     S(el)   - electronic entropy
     S(vib)  - vibrational entropy
     S(rot)  - rotational entropy
     S(trans)- translational entropy
The entropies will be listed as mutliplied by the temperature to get
units of energy

Electronic entropy                ...      0.00000000 Eh      0.00 kcal/mol
Vibrational entropy               ...      0.03752835 Eh     23.55 kcal/mol
Rotational entropy                ...      0.01518721 Eh      9.53 kcal/mol
Translational entropy             ...      0.02108699 Eh     13.23 kcal/mol
-----------------------------------------------------------------------
Final entropy term                ...      0.07380256 Eh     46.31 kcal/mol


CAUTION: The rotational entropy is not quite correctly treated here
         because it includes a symmetry number that is not yet correctly
         implemented in ORCA!
For a nonlinear molecule the correct rotational entropy is:
    S(rot) = R*(ln(qrot/sn)+1.5)
    R    = 8.31441 J/mol/K = 1.987191683e-3 kcal/mol/K
    qrot = 6476423.7379638
    sn is the rotational symmetry number. We have assumed 3 here
       if it is different for your molecule then you should correct
       the printed rotational entropy by manually evaluating the equation
       as given above

For convenience we print out the resulting values for sn=1 - 12:
 sn= 1  qrot/sn= 6476423.7380 T*S(rot)=    10.18 kcal/mol T*S(tot)=    46.96 kcal/mol
 sn= 2  qrot/sn= 3238211.8690 T*S(rot)=     9.77 kcal/mol T*S(tot)=    46.55 kcal/mol
 sn= 3  qrot/sn= 2158807.9127 T*S(rot)=     9.53 kcal/mol T*S(tot)=    46.31 kcal/mol
 sn= 4  qrot/sn= 1619105.9345 T*S(rot)=     9.36 kcal/mol T*S(tot)=    46.14 kcal/mol
 sn= 5  qrot/sn= 1295284.7476 T*S(rot)=     9.23 kcal/mol T*S(tot)=    46.01 kcal/mol
 sn= 6  qrot/sn= 1079403.9563 T*S(rot)=     9.12 kcal/mol T*S(tot)=    45.90 kcal/mol
 sn= 7  qrot/sn=  925203.3911 T*S(rot)=     9.03 kcal/mol T*S(tot)=    45.81 kcal/mol
 sn= 8  qrot/sn=  809552.9672 T*S(rot)=     8.95 kcal/mol T*S(tot)=    45.73 kcal/mol
 sn= 9  qrot/sn=  719602.6376 T*S(rot)=     8.88 kcal/mol T*S(tot)=    45.66 kcal/mol
 sn=10  qrot/sn=  647642.3738 T*S(rot)=     8.82 kcal/mol T*S(tot)=    45.60 kcal/mol
 sn=11  qrot/sn=  588765.7944 T*S(rot)=     8.76 kcal/mol T*S(tot)=    45.54 kcal/mol
 sn=12  qrot/sn=  539701.9782 T*S(rot)=     8.71 kcal/mol T*S(tot)=    45.49 kcal/mol


-------------------
GIBBS FREE ENTHALPY
-------------------

The Gibbs free enthalpy is G = H - T*S

Total enthalpy                    ... -10743.71283984 Eh 
Total entropy correction          ...     -0.07380256 Eh    -46.31 kcal/mol
-----------------------------------------------------------------------
Final Gibbs free enthalpy         ... -10743.78664240 Eh

For completeness - the Gibbs free enthalpy minus the electronic energy
G-E(el)                           ...      0.20815007 Eh    130.62 kcal/mol


Total Time for Numerical Frequencies  :     62877.849 sec

Timings for individual modules:

Sum of individual times         ...     1003.454 sec (=  16.724 min)
GTO integral calculation        ...       14.458 sec (=   0.241 min)   1.4 %
Relativistic integrals          ...        2.237 sec (=   0.037 min)   0.2 %
SCF iterations                  ...      439.188 sec (=   7.320 min)  43.8 %
Solution of CP-SCF eqns.        ...      481.857 sec (=   8.031 min)  48.0 %
SCF Gradient evaluation         ...       64.209 sec (=   1.070 min)   6.4 %
Geometry relaxation             ...        1.505 sec (=   0.025 min)   0.2 %
                             ****ORCA TERMINATED NORMALLY****
TOTAL RUN TIME: 0 days 17 hours 38 minutes 46 seconds 727 msec
