 Entering Gaussian System, Link 0=/net/cottusp/opt/gaussian/g09revA02_amd64/g09/g09
 Input=rhace.com
 Output=rhace.log
 Initial command:
 /net/cottusp/opt/gaussian/g09revA02_amd64/g09/l1.exe /home/case/fes/rh_acetate/Gau-29229.inp -scrdir=/home/case/fes/rh_acetate/
 Entering Link 1 = /net/cottusp/opt/gaussian/g09revA02_amd64/g09/l1.exe PID=     29230.
  
 Copyright (c) 1988,1990,1992,1993,1995,1998,2003,2009, Gaussian, Inc.
                  All Rights Reserved.
  
 This is part of the Gaussian(R) 09 program.  It is based on
 the Gaussian(R) 03 system (copyright 2003, Gaussian, Inc.),
 the Gaussian(R) 98 system (copyright 1998, Gaussian, Inc.),
 the Gaussian(R) 94 system (copyright 1995, Gaussian, Inc.),
 the Gaussian 92(TM) system (copyright 1992, Gaussian, Inc.),
 the Gaussian 90(TM) system (copyright 1990, Gaussian, Inc.),
 the Gaussian 88(TM) system (copyright 1988, Gaussian, Inc.),
 the Gaussian 86(TM) system (copyright 1986, Carnegie Mellon
 University), and the Gaussian 82(TM) system (copyright 1983,
 Carnegie Mellon University). Gaussian is a federally registered
 trademark of Gaussian, Inc.
  
 This software contains proprietary and confidential information,
 including trade secrets, belonging to Gaussian, Inc.
  
 This software is provided under written license and may be
 used, copied, transmitted, or stored only in accord with that
 written license.
  
 The following legend is applicable only to US Government
 contracts under FAR:
  
                    RESTRICTED RIGHTS LEGEND
  
 Use, reproduction and disclosure by the US Government is
 subject to restrictions as set forth in subparagraphs (a)
 and (c) of the Commercial Computer Software - Restricted
 Rights clause in FAR 52.227-19.
  
 Gaussian, Inc.
 340 Quinnipiac St., Bldg. 40, Wallingford CT 06492
  
  
 ---------------------------------------------------------------
 Warning -- This program may not be used in any manner that
 competes with the business of Gaussian, Inc. or will provide
 assistance to any competitor of Gaussian, Inc.  The licensee
 of this program is prohibited from giving any competitor of
 Gaussian, Inc. access to this program.  By using this program,
 the user acknowledges that Gaussian, Inc. is engaged in the
 business of creating and licensing software in the field of
 computational chemistry and represents and warrants to the
 licensee that it is not a competitor of Gaussian, Inc. and that
 it will not use this program in any manner prohibited above.
 ---------------------------------------------------------------
  

 Cite this work as:
 Gaussian 09, Revision A.02,
 M. J. Frisch, G. W. Trucks, H. B. Schlegel, G. E. Scuseria, 
 M. A. Robb, J. R. Cheeseman, G. Scalmani, V. Barone, B. Mennucci, 
 G. A. Petersson, H. Nakatsuji, M. Caricato, X. Li, H. P. Hratchian, 
 A. F. Izmaylov, J. Bloino, G. Zheng, J. L. Sonnenberg, M. Hada, 
 M. Ehara, K. Toyota, R. Fukuda, J. Hasegawa, M. Ishida, T. Nakajima, 
 Y. Honda, O. Kitao, H. Nakai, T. Vreven, J. A. Montgomery, Jr., 
 J. E. Peralta, F. Ogliaro, M. Bearpark, J. J. Heyd, E. Brothers, 
 K. N. Kudin, V. N. Staroverov, R. Kobayashi, J. Normand, 
 K. Raghavachari, A. Rendell, J. C. Burant, S. S. Iyengar, J. Tomasi, 
 M. Cossi, N. Rega, J. M. Millam, M. Klene, J. E. Knox, J. B. Cross, 
 V. Bakken, C. Adamo, J. Jaramillo, R. Gomperts, R. E. Stratmann, 
 O. Yazyev, A. J. Austin, R. Cammi, C. Pomelli, J. W. Ochterski, 
 R. L. Martin, K. Morokuma, V. G. Zakrzewski, G. A. Voth, 
 P. Salvador, J. J. Dannenberg, S. Dapprich, A. D. Daniels, 
 O. Farkas, J. B. Foresman, J. V. Ortiz, J. Cioslowski, 
 and D. J. Fox, Gaussian, Inc., Wallingford CT, 2009.
 
 ******************************************
 Gaussian 09:  AM64L-G09RevA.02 11-Jun-2009
                 3-Dec-2012 
 ******************************************
 %NProcShared=6
 Will use up to    6 processors via shared memory.
 ---------------------------------------------------
 #BP86/LanL2DZ Opt=VTight Freq=HPModes Int=Ultrafine
 ---------------------------------------------------
 1/7=1,14=-1,18=20,19=15,26=3,38=1/1,3;
 2/9=110,12=2,17=6,18=5,40=1/2;
 3/5=6,6=3,11=2,16=1,25=1,30=1,71=1,74=404,75=-5/1,2,3;
 4//1;
 5/5=2,38=5/2;
 6/7=2,8=2,9=2,10=2,28=1/1;
 7//1,2,3,16;
 1/7=1,14=-1,18=20,19=15/3(2);
 2/9=110/2;
 99//99;
 2/9=110/2;
 3/5=6,6=3,11=2,16=1,25=1,30=1,71=1,74=404,75=-5/1,2,3;
 4/5=5,16=3/1;
 5/5=2,38=5/2;
 7//1,2,3,16;
 1/7=1,14=-1,18=20,19=15/3(-5);
 2/9=110/2;
 6/7=2,8=2,9=2,10=2,19=2,28=1/1;
 99/9=1/99;
 ----------------------------------
 di-rhodium tetra-acetate dihydrate
 ----------------------------------
 Symbolic Z-matrix:
 Charge =  0 Multiplicity = 1
 6                    -0.00861   2.67944   0. 
 6                    -0.06098   4.1978    0. 
 6                     2.68026   0.00915   0. 
 6                     4.19827   0.06252   0. 
 1                    -1.11672   4.52826   0. 
 1                     0.42473   4.59339   0.90624 
 1                     0.42473   4.59339  -0.90624 
 1                     4.52827   1.11839   0. 
 1                     4.5948   -0.42355   0.90562 
 1                     4.5948   -0.42355  -0.90562 
 8                     0.        2.07638  -1.16776 
 8                     0.        2.07638   1.16776 
 8                     2.07582   0.00032  -1.16721 
 8                    -2.07582  -0.00032  -1.16721 
 8                     0.        0.       -3.5002 
 45                    0.        0.       -1.22511 
 45                    0.        0.        1.22511 
 8                     0.       -2.07638  -1.16776 
 8                     2.07582   0.00032   1.16721 
 6                    -2.68026  -0.00915   0. 
 8                     0.       -2.07638   1.16776 
 8                    -2.07582  -0.00032   1.16721 
 8                     0.        0.        3.5002 
 6                     0.00861  -2.67944   0. 
 6                    -4.19827  -0.06252   0. 
 6                     0.06098  -4.1978    0. 
 1                     1.11672  -4.52826   0. 
 1                    -0.42473  -4.59339  -0.90624 
 1                    -0.42473  -4.59339   0.90624 
 1                    -4.52827  -1.11839   0. 
 1                    -4.5948    0.42355  -0.90562 
 1                    -4.5948    0.42355   0.90562 
 1                    -0.82155  -0.00476   4.03734 
 1                     0.82155   0.00476   4.03734 
 1                     0.82155   0.00476  -4.03734 
 1                    -0.82155  -0.00476  -4.03734 
 

 GradGradGradGradGradGradGradGradGradGradGradGradGradGradGradGradGradGrad
 Berny optimization.
 Initialization pass.
                           ----------------------------
                           !    Initial Parameters    !
                           ! (Angstroms and Degrees)  !
 --------------------------                            --------------------------
 ! Name  Definition              Value          Derivative Info.                !
 --------------------------------------------------------------------------------
 ! R1    R(1,2)                  1.5193         estimate D2E/DX2                !
 ! R2    R(1,11)                 1.3143         estimate D2E/DX2                !
 ! R3    R(1,12)                 1.3143         estimate D2E/DX2                !
 ! R4    R(2,5)                  1.1062         estimate D2E/DX2                !
 ! R5    R(2,6)                  1.1017         estimate D2E/DX2                !
 ! R6    R(2,7)                  1.1017         estimate D2E/DX2                !
 ! R7    R(3,4)                  1.5189         estimate D2E/DX2                !
 ! R8    R(3,13)                 1.3145         estimate D2E/DX2                !
 ! R9    R(3,19)                 1.3145         estimate D2E/DX2                !
 ! R10   R(4,8)                  1.1062         estimate D2E/DX2                !
 ! R11   R(4,9)                  1.1017         estimate D2E/DX2                !
 ! R12   R(4,10)                 1.1017         estimate D2E/DX2                !
 ! R13   R(11,16)                2.0772         estimate D2E/DX2                !
 ! R14   R(12,17)                2.0772         estimate D2E/DX2                !
 ! R15   R(13,16)                2.0766         estimate D2E/DX2                !
 ! R16   R(14,16)                2.0766         estimate D2E/DX2                !
 ! R17   R(14,20)                1.3145         estimate D2E/DX2                !
 ! R18   R(15,16)                2.2751         estimate D2E/DX2                !
 ! R19   R(15,35)                0.9816         estimate D2E/DX2                !
 ! R20   R(15,36)                0.9816         estimate D2E/DX2                !
 ! R21   R(16,17)                2.4502         estimate D2E/DX2                !
 ! R22   R(16,18)                2.0772         estimate D2E/DX2                !
 ! R23   R(17,19)                2.0766         estimate D2E/DX2                !
 ! R24   R(17,21)                2.0772         estimate D2E/DX2                !
 ! R25   R(17,22)                2.0766         estimate D2E/DX2                !
 ! R26   R(17,23)                2.2751         estimate D2E/DX2                !
 ! R27   R(18,24)                1.3143         estimate D2E/DX2                !
 ! R28   R(20,22)                1.3145         estimate D2E/DX2                !
 ! R29   R(20,25)                1.5189         estimate D2E/DX2                !
 ! R30   R(21,24)                1.3143         estimate D2E/DX2                !
 ! R31   R(23,33)                0.9816         estimate D2E/DX2                !
 ! R32   R(23,34)                0.9816         estimate D2E/DX2                !
 ! R33   R(24,26)                1.5193         estimate D2E/DX2                !
 ! R34   R(25,30)                1.1062         estimate D2E/DX2                !
 ! R35   R(25,31)                1.1017         estimate D2E/DX2                !
 ! R36   R(25,32)                1.1017         estimate D2E/DX2                !
 ! R37   R(26,27)                1.1062         estimate D2E/DX2                !
 ! R38   R(26,28)                1.1017         estimate D2E/DX2                !
 ! R39   R(26,29)                1.1017         estimate D2E/DX2                !
 ! A1    A(2,1,11)             117.3094         estimate D2E/DX2                !
 ! A2    A(2,1,12)             117.3094         estimate D2E/DX2                !
 ! A3    A(11,1,12)            125.3691         estimate D2E/DX2                !
 ! A4    A(1,2,5)              109.3565         estimate D2E/DX2                !
 ! A5    A(1,2,6)              110.1006         estimate D2E/DX2                !
 ! A6    A(1,2,7)              110.1006         estimate D2E/DX2                !
 ! A7    A(5,2,6)              108.2697         estimate D2E/DX2                !
 ! A8    A(5,2,7)              108.2697         estimate D2E/DX2                !
 ! A9    A(6,2,7)              110.6928         estimate D2E/DX2                !
 ! A10   A(4,3,13)             117.3737         estimate D2E/DX2                !
 ! A11   A(4,3,19)             117.3737         estimate D2E/DX2                !
 ! A12   A(13,3,19)            125.24           estimate D2E/DX2                !
 ! A13   A(3,4,8)              109.3701         estimate D2E/DX2                !
 ! A14   A(3,4,9)              110.1339         estimate D2E/DX2                !
 ! A15   A(3,4,10)             110.1339         estimate D2E/DX2                !
 ! A16   A(8,4,9)              108.2855         estimate D2E/DX2                !
 ! A17   A(8,4,10)             108.2855         estimate D2E/DX2                !
 ! A18   A(9,4,10)             110.5814         estimate D2E/DX2                !
 ! A19   A(1,11,16)            118.8946         estimate D2E/DX2                !
 ! A20   A(1,12,17)            118.8946         estimate D2E/DX2                !
 ! A21   A(3,13,16)            118.9746         estimate D2E/DX2                !
 ! A22   A(16,14,20)           118.9746         estimate D2E/DX2                !
 ! A23   A(16,15,35)           123.1771         estimate D2E/DX2                !
 ! A24   A(16,15,36)           123.1771         estimate D2E/DX2                !
 ! A25   A(35,15,36)           113.6458         estimate D2E/DX2                !
 ! A26   A(11,16,13)            89.9471         estimate D2E/DX2                !
 ! A27   A(11,16,14)            89.9647         estimate D2E/DX2                !
 ! A28   A(11,16,15)            91.5822         estimate D2E/DX2                !
 ! A29   A(11,16,17)            88.4178         estimate D2E/DX2                !
 ! A30   A(13,16,15)            91.5978         estimate D2E/DX2                !
 ! A31   A(13,16,17)            88.4022         estimate D2E/DX2                !
 ! A32   A(13,16,18)            89.9647         estimate D2E/DX2                !
 ! A33   A(14,16,15)            91.5978         estimate D2E/DX2                !
 ! A34   A(14,16,17)            88.4022         estimate D2E/DX2                !
 ! A35   A(14,16,18)            89.9471         estimate D2E/DX2                !
 ! A36   A(15,16,18)            91.5822         estimate D2E/DX2                !
 ! A37   A(17,16,18)            88.4178         estimate D2E/DX2                !
 ! A38   A(12,17,16)            88.4178         estimate D2E/DX2                !
 ! A39   A(12,17,19)            89.9471         estimate D2E/DX2                !
 ! A40   A(12,17,22)            89.9647         estimate D2E/DX2                !
 ! A41   A(12,17,23)            91.5822         estimate D2E/DX2                !
 ! A42   A(16,17,19)            88.4022         estimate D2E/DX2                !
 ! A43   A(16,17,21)            88.4178         estimate D2E/DX2                !
 ! A44   A(16,17,22)            88.4022         estimate D2E/DX2                !
 ! A45   A(19,17,21)            89.9647         estimate D2E/DX2                !
 ! A46   A(19,17,23)            91.5978         estimate D2E/DX2                !
 ! A47   A(21,17,22)            89.9471         estimate D2E/DX2                !
 ! A48   A(21,17,23)            91.5822         estimate D2E/DX2                !
 ! A49   A(22,17,23)            91.5978         estimate D2E/DX2                !
 ! A50   A(16,18,24)           118.8946         estimate D2E/DX2                !
 ! A51   A(3,19,17)            118.9746         estimate D2E/DX2                !
 ! A52   A(14,20,22)           125.24           estimate D2E/DX2                !
 ! A53   A(14,20,25)           117.3737         estimate D2E/DX2                !
 ! A54   A(22,20,25)           117.3737         estimate D2E/DX2                !
 ! A55   A(17,21,24)           118.8946         estimate D2E/DX2                !
 ! A56   A(17,22,20)           118.9746         estimate D2E/DX2                !
 ! A57   A(17,23,33)           123.1771         estimate D2E/DX2                !
 ! A58   A(17,23,34)           123.1771         estimate D2E/DX2                !
 ! A59   A(33,23,34)           113.6458         estimate D2E/DX2                !
 ! A60   A(18,24,21)           125.3691         estimate D2E/DX2                !
 ! A61   A(18,24,26)           117.3094         estimate D2E/DX2                !
 ! A62   A(21,24,26)           117.3094         estimate D2E/DX2                !
 ! A63   A(20,25,30)           109.3701         estimate D2E/DX2                !
 ! A64   A(20,25,31)           110.1339         estimate D2E/DX2                !
 ! A65   A(20,25,32)           110.1339         estimate D2E/DX2                !
 ! A66   A(30,25,31)           108.2855         estimate D2E/DX2                !
 ! A67   A(30,25,32)           108.2855         estimate D2E/DX2                !
 ! A68   A(31,25,32)           110.5814         estimate D2E/DX2                !
 ! A69   A(24,26,27)           109.3565         estimate D2E/DX2                !
 ! A70   A(24,26,28)           110.1006         estimate D2E/DX2                !
 ! A71   A(24,26,29)           110.1006         estimate D2E/DX2                !
 ! A72   A(27,26,28)           108.2697         estimate D2E/DX2                !
 ! A73   A(27,26,29)           108.2697         estimate D2E/DX2                !
 ! A74   A(28,26,29)           110.6928         estimate D2E/DX2                !
 ! D1    D(11,1,2,5)            89.402          estimate D2E/DX2                !
 ! D2    D(11,1,2,6)          -151.7566         estimate D2E/DX2                !
 ! D3    D(11,1,2,7)           -29.4394         estimate D2E/DX2                !
 ! D4    D(12,1,2,5)           -89.402          estimate D2E/DX2                !
 ! D5    D(12,1,2,6)            29.4394         estimate D2E/DX2                !
 ! D6    D(12,1,2,7)           151.7566         estimate D2E/DX2                !
 ! D7    D(2,1,11,16)         -177.7632         estimate D2E/DX2                !
 ! D8    D(12,1,11,16)           0.9336         estimate D2E/DX2                !
 ! D9    D(2,1,12,17)          177.7632         estimate D2E/DX2                !
 ! D10   D(11,1,12,17)          -0.9336         estimate D2E/DX2                !
 ! D11   D(13,3,4,8)            89.3904         estimate D2E/DX2                !
 ! D12   D(13,3,4,9)          -151.7205         estimate D2E/DX2                !
 ! D13   D(13,3,4,10)          -29.4987         estimate D2E/DX2                !
 ! D14   D(19,3,4,8)           -89.3904         estimate D2E/DX2                !
 ! D15   D(19,3,4,9)            29.4987         estimate D2E/DX2                !
 ! D16   D(19,3,4,10)          151.7205         estimate D2E/DX2                !
 ! D17   D(4,3,13,16)         -177.7285         estimate D2E/DX2                !
 ! D18   D(19,3,13,16)           0.9459         estimate D2E/DX2                !
 ! D19   D(4,3,19,17)          177.7285         estimate D2E/DX2                !
 ! D20   D(13,3,19,17)          -0.9459         estimate D2E/DX2                !
 ! D21   D(1,11,16,13)         -88.8316         estimate D2E/DX2                !
 ! D22   D(1,11,16,14)          87.974          estimate D2E/DX2                !
 ! D23   D(1,11,16,15)         179.5714         estimate D2E/DX2                !
 ! D24   D(1,11,16,17)          -0.4286         estimate D2E/DX2                !
 ! D25   D(1,11,18,24)          -0.8446         estimate D2E/DX2                !
 ! D26   D(1,12,17,16)           0.4286         estimate D2E/DX2                !
 ! D27   D(1,12,17,19)          88.8316         estimate D2E/DX2                !
 ! D28   D(1,12,17,22)         -87.974          estimate D2E/DX2                !
 ! D29   D(1,12,17,23)        -179.5714         estimate D2E/DX2                !
 ! D30   D(1,12,21,24)           0.8446         estimate D2E/DX2                !
 ! D31   D(3,13,16,11)          87.9834         estimate D2E/DX2                !
 ! D32   D(3,13,16,15)         179.5648         estimate D2E/DX2                !
 ! D33   D(3,13,16,17)          -0.4352         estimate D2E/DX2                !
 ! D34   D(3,13,16,18)         -88.8533         estimate D2E/DX2                !
 ! D35   D(20,14,16,11)        -88.8533         estimate D2E/DX2                !
 ! D36   D(20,14,16,15)        179.5648         estimate D2E/DX2                !
 ! D37   D(20,14,16,17)         -0.4352         estimate D2E/DX2                !
 ! D38   D(20,14,16,18)         87.9834         estimate D2E/DX2                !
 ! D39   D(16,14,20,22)          0.9459         estimate D2E/DX2                !
 ! D40   D(16,14,20,25)       -177.7285         estimate D2E/DX2                !
 ! D41   D(35,15,16,11)         89.6683         estimate D2E/DX2                !
 ! D42   D(35,15,16,13)         -0.3229         estimate D2E/DX2                !
 ! D43   D(35,15,16,14)        179.6771         estimate D2E/DX2                !
 ! D44   D(35,15,16,18)        -90.3317         estimate D2E/DX2                !
 ! D45   D(36,15,16,11)        -90.3317         estimate D2E/DX2                !
 ! D46   D(36,15,16,13)        179.6771         estimate D2E/DX2                !
 ! D47   D(36,15,16,14)         -0.3229         estimate D2E/DX2                !
 ! D48   D(36,15,16,18)         89.6683         estimate D2E/DX2                !
 ! D49   D(35,15,17,12)         89.6683         estimate D2E/DX2                !
 ! D50   D(35,15,17,19)         -0.3229         estimate D2E/DX2                !
 ! D51   D(35,15,17,21)        -90.3317         estimate D2E/DX2                !
 ! D52   D(35,15,17,22)        179.6771         estimate D2E/DX2                !
 ! D53   D(36,15,17,12)        -90.3317         estimate D2E/DX2                !
 ! D54   D(36,15,17,19)        179.6771         estimate D2E/DX2                !
 ! D55   D(36,15,17,21)         89.6683         estimate D2E/DX2                !
 ! D56   D(36,15,17,22)         -0.3229         estimate D2E/DX2                !
 ! D57   D(35,15,23,33)        180.0            estimate D2E/DX2                !
 ! D58   D(35,15,23,34)          0.0            estimate D2E/DX2                !
 ! D59   D(36,15,23,33)          0.0            estimate D2E/DX2                !
 ! D60   D(36,15,23,34)        180.0            estimate D2E/DX2                !
 ! D61   D(11,16,17,12)          0.0            estimate D2E/DX2                !
 ! D62   D(11,16,17,19)        -89.9912         estimate D2E/DX2                !
 ! D63   D(11,16,17,21)        180.0            estimate D2E/DX2                !
 ! D64   D(11,16,17,22)         90.0088         estimate D2E/DX2                !
 ! D65   D(13,16,17,12)         89.9912         estimate D2E/DX2                !
 ! D66   D(13,16,17,19)          0.0            estimate D2E/DX2                !
 ! D67   D(13,16,17,21)        -90.0088         estimate D2E/DX2                !
 ! D68   D(13,16,17,22)        180.0            estimate D2E/DX2                !
 ! D69   D(14,16,17,12)        -90.0088         estimate D2E/DX2                !
 ! D70   D(14,16,17,19)        180.0            estimate D2E/DX2                !
 ! D71   D(14,16,17,21)         89.9912         estimate D2E/DX2                !
 ! D72   D(14,16,17,22)          0.0            estimate D2E/DX2                !
 ! D73   D(18,16,17,12)        180.0            estimate D2E/DX2                !
 ! D74   D(18,16,17,19)         90.0088         estimate D2E/DX2                !
 ! D75   D(18,16,17,21)          0.0            estimate D2E/DX2                !
 ! D76   D(18,16,17,22)        -89.9912         estimate D2E/DX2                !
 ! D77   D(13,16,18,24)         87.974          estimate D2E/DX2                !
 ! D78   D(14,16,18,24)        -88.8316         estimate D2E/DX2                !
 ! D79   D(15,16,18,24)        179.5714         estimate D2E/DX2                !
 ! D80   D(17,16,18,24)         -0.4286         estimate D2E/DX2                !
 ! D81   D(11,16,23,33)         90.3317         estimate D2E/DX2                !
 ! D82   D(11,16,23,34)        -89.6683         estimate D2E/DX2                !
 ! D83   D(13,16,23,33)       -179.6771         estimate D2E/DX2                !
 ! D84   D(13,16,23,34)          0.3229         estimate D2E/DX2                !
 ! D85   D(14,16,23,33)          0.3229         estimate D2E/DX2                !
 ! D86   D(14,16,23,34)       -179.6771         estimate D2E/DX2                !
 ! D87   D(18,16,23,33)        -89.6683         estimate D2E/DX2                !
 ! D88   D(18,16,23,34)         90.3317         estimate D2E/DX2                !
 ! D89   D(12,17,19,3)         -87.9834         estimate D2E/DX2                !
 ! D90   D(16,17,19,3)           0.4352         estimate D2E/DX2                !
 ! D91   D(21,17,19,3)          88.8533         estimate D2E/DX2                !
 ! D92   D(23,17,19,3)        -179.5648         estimate D2E/DX2                !
 ! D93   D(3,19,22,20)           0.8575         estimate D2E/DX2                !
 ! D94   D(16,17,21,24)          0.4286         estimate D2E/DX2                !
 ! D95   D(19,17,21,24)        -87.974          estimate D2E/DX2                !
 ! D96   D(22,17,21,24)         88.8316         estimate D2E/DX2                !
 ! D97   D(23,17,21,24)       -179.5714         estimate D2E/DX2                !
 ! D98   D(12,17,22,20)         88.8533         estimate D2E/DX2                !
 ! D99   D(16,17,22,20)          0.4352         estimate D2E/DX2                !
 ! D100  D(21,17,22,20)        -87.9834         estimate D2E/DX2                !
 ! D101  D(23,17,22,20)       -179.5648         estimate D2E/DX2                !
 ! D102  D(12,17,23,33)         90.3317         estimate D2E/DX2                !
 ! D103  D(12,17,23,34)        -89.6683         estimate D2E/DX2                !
 ! D104  D(19,17,23,33)       -179.6771         estimate D2E/DX2                !
 ! D105  D(19,17,23,34)          0.3229         estimate D2E/DX2                !
 ! D106  D(21,17,23,33)        -89.6683         estimate D2E/DX2                !
 ! D107  D(21,17,23,34)         90.3317         estimate D2E/DX2                !
 ! D108  D(22,17,23,33)          0.3229         estimate D2E/DX2                !
 ! D109  D(22,17,23,34)       -179.6771         estimate D2E/DX2                !
 ! D110  D(16,18,24,21)          0.9336         estimate D2E/DX2                !
 ! D111  D(16,18,24,26)       -177.7632         estimate D2E/DX2                !
 ! D112  D(14,20,22,17)         -0.9459         estimate D2E/DX2                !
 ! D113  D(25,20,22,17)        177.7285         estimate D2E/DX2                !
 ! D114  D(14,20,25,30)         89.3904         estimate D2E/DX2                !
 ! D115  D(14,20,25,31)        -29.4987         estimate D2E/DX2                !
 ! D116  D(14,20,25,32)       -151.7205         estimate D2E/DX2                !
 ! D117  D(22,20,25,30)        -89.3904         estimate D2E/DX2                !
 ! D118  D(22,20,25,31)        151.7205         estimate D2E/DX2                !
 ! D119  D(22,20,25,32)         29.4987         estimate D2E/DX2                !
 ! D120  D(17,21,24,18)         -0.9336         estimate D2E/DX2                !
 ! D121  D(17,21,24,26)        177.7632         estimate D2E/DX2                !
 ! D122  D(18,24,26,27)         89.402          estimate D2E/DX2                !
 ! D123  D(18,24,26,28)        -29.4394         estimate D2E/DX2                !
 ! D124  D(18,24,26,29)       -151.7566         estimate D2E/DX2                !
 ! D125  D(21,24,26,27)        -89.402          estimate D2E/DX2                !
 ! D126  D(21,24,26,28)        151.7566         estimate D2E/DX2                !
 ! D127  D(21,24,26,29)         29.4394         estimate D2E/DX2                !
 --------------------------------------------------------------------------------
 Trust Radius=3.00D-01 FncErr=1.00D-07 GrdErr=1.00D-06
 Number of steps in this run= 216 maximum allowed number of steps= 216.
 GradGradGradGradGradGradGradGradGradGradGradGradGradGradGradGradGradGrad

                          Input orientation:                          
 ---------------------------------------------------------------------
 Center     Atomic      Atomic             Coordinates (Angstroms)
 Number     Number       Type             X           Y           Z
 ---------------------------------------------------------------------
      1          6           0       -0.008607    2.679440    0.000000
      2          6           0       -0.060983    4.197799    0.000000
      3          6           0        2.680261    0.009146    0.000000
      4          6           0        4.198268    0.062521    0.000000
      5          1           0       -1.116715    4.528258    0.000000
      6          1           0        0.424727    4.593388    0.906235
      7          1           0        0.424727    4.593388   -0.906235
      8          1           0        4.528273    1.118388    0.000000
      9          1           0        4.594801   -0.423549    0.905619
     10          1           0        4.594801   -0.423549   -0.905619
     11          8           0        0.000000    2.076379   -1.167756
     12          8           0        0.000000    2.076379    1.167756
     13          8           0        2.075820    0.000319   -1.167207
     14          8           0       -2.075820   -0.000319   -1.167207
     15          8           0        0.000000    0.000000   -3.500195
     16         45           0        0.000000    0.000000   -1.225110
     17         45           0        0.000000    0.000000    1.225110
     18          8           0        0.000000   -2.076379   -1.167756
     19          8           0        2.075820    0.000319    1.167207
     20          6           0       -2.680261   -0.009146    0.000000
     21          8           0        0.000000   -2.076379    1.167756
     22          8           0       -2.075820   -0.000319    1.167207
     23          8           0        0.000000    0.000000    3.500195
     24          6           0        0.008607   -2.679440    0.000000
     25          6           0       -4.198268   -0.062521    0.000000
     26          6           0        0.060983   -4.197799    0.000000
     27          1           0        1.116715   -4.528258    0.000000
     28          1           0       -0.424727   -4.593388   -0.906235
     29          1           0       -0.424727   -4.593388    0.906235
     30          1           0       -4.528273   -1.118388    0.000000
     31          1           0       -4.594801    0.423549   -0.905619
     32          1           0       -4.594801    0.423549    0.905619
     33          1           0       -0.821551   -0.004756    4.037343
     34          1           0        0.821551    0.004756    4.037343
     35          1           0        0.821551    0.004756   -4.037343
     36          1           0       -0.821551   -0.004756   -4.037343
 ---------------------------------------------------------------------
                    Distance matrix (angstroms):
                    1          2          3          4          5
     1  C    0.000000
     2  C    1.519262   0.000000
     3  C    3.789523   5.005920   0.000000
     4  C    4.954398   5.936476   1.518945   0.000000
     5  H    2.155465   1.106243   5.902491   6.942035   0.000000
     6  H    2.161536   1.101665   5.188831   5.965704   1.789287
     7  H    2.161536   1.101665   5.188831   5.965704   1.789287
     8  H    4.797933   5.526667   2.155358   1.106236   6.594930
     9  H    5.624949   6.622185   2.161674   1.101657   7.613275
    10  H    5.624949   6.622185   2.161674   1.101657   7.613275
    11  O    1.314310   2.422353   3.580629   4.800493   2.936395
    12  O    1.314310   2.422353   3.580629   4.800493   2.936395
    13  O    3.589554   4.852539   1.314458   2.423020   5.661880
    14  O    3.580063   4.800639   4.897220   6.382045   4.773915
    15  O    4.408042   5.465949   4.408543   5.466327   5.831255
    16  Rh   2.946246   4.373343   2.946995   4.373815   4.822143
    17  Rh   2.946246   4.373343   2.946995   4.373815   4.822143
    18  O    4.897095   6.382216   3.591221   4.854277   6.799407
    19  O    3.589554   4.852539   1.314458   2.423020   5.661880
    20  C    3.790281   4.955704   5.360553   6.878902   4.799241
    21  O    4.897095   6.382216   3.591221   4.854277   6.799407
    22  O    3.580063   4.800639   4.897220   6.382045   4.773915
    23  O    4.408042   5.465949   4.408543   5.466327   5.831255
    24  C    5.358908   6.877591   3.790281   5.007156   7.295016
    25  C    5.007156   5.938641   6.878902   8.397467   5.529125
    26  C    6.877591   8.396484   4.955704   5.938641   8.805171
    27  H    7.295016   8.805171   4.799241   5.529125   9.327845
    28  H    7.340875   8.845255   5.625436   6.623506   9.192635
    29  H    7.340875   8.845255   5.625436   6.623506   9.192635
    30  H    5.903463   6.943956   7.296184   8.806081   6.597222
    31  H    5.190604   5.968301   7.342915   8.846951   5.455810
    32  H    5.190604   5.968301   7.342915   8.846951   5.455810
    33  H    4.915885   5.877080   5.344438   6.442301   6.077456
    34  H    4.913577   5.887327   4.444655   5.263620   6.365460
    35  H    4.913577   5.887327   4.444655   5.263620   6.365460
    36  H    4.915885   5.877080   5.344438   6.442301   6.077456
                    6          7          8          9         10
     6  H    0.000000
     7  H    1.812470   0.000000
     8  H    5.453070   5.453070   0.000000
     9  H    6.523739   6.770671   1.789453   0.000000
    10  H    6.770671   6.523739   1.789453   1.811238   0.000000
    11  O    3.288946   2.565954   4.773537   5.626786   5.237418
    12  O    2.565954   3.288946   4.773537   5.237418   5.626786
    13  O    5.302976   4.887791   2.937171   3.289610   2.567753
    14  O    5.626192   5.236696   6.799112   6.998065   6.689151
    15  O    6.379360   5.292281   5.831588   6.379874   5.293715
    16  Rh   5.081559   4.623990   4.822545   5.082479   4.625329
    17  Rh   4.623990   5.081559   4.822545   4.625329   5.082479
    18  O    6.997687   6.688391   5.663519   5.304991   4.890067
    19  O    4.887791   5.302976   2.937171   2.567753   3.289610
    20  C    5.625436   5.625436   7.296184   7.342915   7.342915
    21  O    6.688391   6.997687   5.663519   4.890067   5.304991
    22  O    5.236696   5.626192   6.799112   6.689151   6.998065
    23  O    5.292281   6.379360   5.831588   5.293715   6.379874
    24  C    7.340875   7.340875   5.903463   5.190604   5.190604
    25  C    6.623506   6.623506   8.806081   8.846951   8.846951
    26  C    8.845255   8.845255   6.943956   5.968301   5.968301
    27  H    9.192635   9.192635   6.597222   5.455810   5.455810
    28  H    9.402312   9.225965   7.614319   6.772447   6.525582
    29  H    9.225965   9.402312   7.614319   6.525582   6.772447
    30  H    7.614319   7.614319   9.328676   9.194206   9.194206
    31  H    6.772447   6.525582   9.194206   9.404623   9.228562
    32  H    6.525582   6.772447   9.194206   9.228562   9.404623
    33  H    5.700875   6.865501   6.795749   6.270562   7.344735
    34  H    5.569277   6.756625   5.592862   4.922251   6.233276
    35  H    6.756625   5.569277   5.592862   6.233276   4.922251
    36  H    6.865501   5.700875   6.795749   7.344735   6.270562
                   11         12         13         14         15
    11  O    0.000000
    12  O    2.335512   0.000000
    13  O    2.935823   3.751147   0.000000
    14  O    2.936274   3.751500   4.151640   0.000000
    15  O    3.122759   5.108925   3.122797   3.122797   0.000000
    16  Rh   2.077171   3.168147   2.076627   2.076627   2.275085
    17  Rh   3.168147   2.077171   3.167366   3.167366   4.725305
    18  O    4.152758   4.764453   2.936274   2.935823   3.122759
    19  O    3.751147   2.935823   2.334414   4.762941   5.108196
    20  C    3.591221   3.591221   4.897220   1.314458   4.408543
    21  O    4.764453   4.152758   3.751500   3.751147   5.108925
    22  O    3.751500   2.936274   4.762941   2.334414   5.108196
    23  O    5.108925   3.122759   5.108196   5.108196   7.000390
    24  C    4.897095   4.897095   3.580063   3.589554   4.408042
    25  C    4.854277   4.854277   6.382045   2.423020   5.466327
    26  C    6.382216   6.382216   4.800639   4.852539   5.465949
    27  H    6.799407   6.799407   4.773915   5.661880   5.831255
    28  H    6.688391   6.997687   5.236696   4.887791   5.292281
    29  H    6.997687   6.688391   5.626192   5.302976   6.379360
    30  H    5.663519   5.663519   6.799112   2.937171   5.831588
    31  H    4.890067   5.304991   6.689151   2.567753   5.293715
    32  H    5.304991   4.890067   6.998065   3.289610   6.379874
    33  H    5.665609   3.638763   5.956687   5.353555   7.582180
    34  H    5.662122   3.633331   5.353555   5.956687   7.582180
    35  H    3.633331   5.662122   3.132234   4.078292   0.981579
    36  H    3.638763   5.665609   4.078292   3.132234   0.981579
                   16         17         18         19         20
    16  Rh   0.000000
    17  Rh   2.450220   0.000000
    18  O    2.077171   3.168147   0.000000
    19  O    3.167366   2.076627   3.751500   0.000000
    20  C    2.946995   2.946995   3.580629   4.897220   0.000000
    21  O    3.168147   2.077171   2.335512   2.936274   3.580629
    22  O    3.167366   2.076627   3.751147   4.151640   1.314458
    23  O    4.725305   2.275085   5.108925   3.122797   4.408543
    24  C    2.946246   2.946246   1.314310   3.580063   3.789523
    25  C    4.373815   4.373815   4.800493   6.382045   1.518945
    26  C    4.373343   4.373343   2.422353   4.800639   5.005920
    27  H    4.822143   4.822143   2.936395   4.773915   5.902491
    28  H    4.623990   5.081559   2.565954   5.626192   5.188831
    29  H    5.081559   4.623990   3.288946   5.236696   5.188831
    30  H    4.822545   4.822545   4.773537   6.799112   2.155358
    31  H    4.625329   5.082479   5.237418   6.998065   2.161674
    32  H    5.082479   4.625329   5.626786   6.689151   2.161674
    33  H    5.326198   2.929782   5.662122   4.078292   4.444655
    34  H    5.326198   2.929782   5.665609   3.132234   5.344438
    35  H    2.929782   5.326198   3.638763   5.353555   5.344438
    36  H    2.929782   5.326198   3.633331   5.956687   4.444655
                   21         22         23         24         25
    21  O    0.000000
    22  O    2.935823   0.000000
    23  O    3.122759   3.122797   0.000000
    24  C    1.314310   3.589554   4.408042   0.000000
    25  C    4.800493   2.423020   5.466327   4.954398   0.000000
    26  C    2.422353   4.852539   5.465949   1.519262   5.936476
    27  H    2.936395   5.661880   5.831255   2.155465   6.942035
    28  H    3.288946   5.302976   6.379360   2.161536   5.965704
    29  H    2.565954   4.887791   5.292281   2.161536   5.965704
    30  H    4.773537   2.937171   5.831588   4.797933   1.106236
    31  H    5.626786   3.289610   6.379874   5.624949   1.101657
    32  H    5.237418   2.567753   5.293715   5.624949   1.101657
    33  H    3.633331   3.132234   0.981579   4.913577   5.263620
    34  H    3.638763   4.078292   0.981579   4.915885   6.442301
    35  H    5.665609   5.956687   7.582180   4.915885   6.442301
    36  H    5.662122   5.353555   7.582180   4.913577   5.263620
                   26         27         28         29         30
    26  C    0.000000
    27  H    1.106243   0.000000
    28  H    1.101665   1.789287   0.000000
    29  H    1.101665   1.789287   1.812470   0.000000
    30  H    5.526667   6.594930   5.453070   5.453070   0.000000
    31  H    6.622185   7.613275   6.523739   6.770671   1.789453
    32  H    6.622185   7.613275   6.770671   6.523739   1.789453
    33  H    5.887327   6.365460   6.756625   5.569277   5.592862
    34  H    5.877080   6.077456   6.865501   5.700875   6.795749
    35  H    5.877080   6.077456   5.700875   6.865501   6.795749
    36  H    5.887327   6.365460   5.569277   6.756625   5.592862
                   31         32         33         34         35
    31  H    0.000000
    32  H    1.811238   0.000000
    33  H    6.233276   4.922251   0.000000
    34  H    7.344735   6.270562   1.643130   0.000000
    35  H    6.270562   7.344735   8.240172   8.074686   0.000000
    36  H    4.922251   6.233276   8.074686   8.240172   1.643130
                   36
    36  H    0.000000
 Stoichiometry    C8H16O10Rh2
 Framework group  C2H[C2(ORh.RhO),SGH(C8H4),X(H12O8)]
 Deg. of freedom    28
 Full point group                 C2H     NOp   4
 Largest Abelian subgroup         C2H     NOp   4
 Largest concise Abelian subgroup C2H     NOp   4
                         Standard orientation:                         
 ---------------------------------------------------------------------
 Center     Atomic      Atomic             Coordinates (Angstroms)
 Number     Number       Type             X           Y           Z
 ---------------------------------------------------------------------
      1          6           0       -0.008607    2.679440    0.000000
      2          6           0       -0.060983    4.197799    0.000000
      3          6           0        2.680261    0.009146    0.000000
      4          6           0        4.198268    0.062521    0.000000
      5          1           0       -1.116715    4.528258    0.000000
      6          1           0        0.424727    4.593388    0.906235
      7          1           0        0.424727    4.593388   -0.906235
      8          1           0        4.528273    1.118388    0.000000
      9          1           0        4.594801   -0.423549    0.905619
     10          1           0        4.594801   -0.423549   -0.905619
     11          8           0        0.000000    2.076379   -1.167756
     12          8           0        0.000000    2.076379    1.167756
     13          8           0        2.075820    0.000319   -1.167207
     14          8           0       -2.075820   -0.000319   -1.167207
     15          8           0        0.000000    0.000000   -3.500195
     16         45           0        0.000000    0.000000   -1.225110
     17         45           0        0.000000    0.000000    1.225110
     18          8           0        0.000000   -2.076379   -1.167756
     19          8           0        2.075820    0.000319    1.167207
     20          6           0       -2.680261   -0.009146    0.000000
     21          8           0        0.000000   -2.076379    1.167756
     22          8           0       -2.075820   -0.000319    1.167207
     23          8           0        0.000000    0.000000    3.500195
     24          6           0        0.008607   -2.679440    0.000000
     25          6           0       -4.198268   -0.062521    0.000000
     26          6           0        0.060983   -4.197799    0.000000
     27          1           0        1.116715   -4.528258    0.000000
     28          1           0       -0.424727   -4.593388   -0.906235
     29          1           0       -0.424727   -4.593388    0.906235
     30          1           0       -4.528273   -1.118388    0.000000
     31          1           0       -4.594801    0.423549   -0.905619
     32          1           0       -4.594801    0.423549    0.905619
     33          1           0       -0.821551   -0.004756    4.037343
     34          1           0        0.821551    0.004756    4.037343
     35          1           0        0.821551    0.004756   -4.037343
     36          1           0       -0.821551   -0.004756   -4.037343
 ---------------------------------------------------------------------
 Rotational constants (GHZ):      0.2593926      0.2590107      0.2521354
 Standard basis: LANL2DZ (5D, 7F)
 There are    73 symmetry adapted basis functions of AG  symmetry.
 There are    46 symmetry adapted basis functions of BG  symmetry.
 There are    49 symmetry adapted basis functions of AU  symmetry.
 There are    70 symmetry adapted basis functions of BU  symmetry.
 Integral buffers will be    131072 words long.
 Raffenetti 2 integral format.
 Two-electron integral symmetry is turned on.
   238 basis functions,   612 primitive gaussians,   242 cartesian basis functions
    89 alpha electrons       89 beta electrons
       nuclear repulsion energy      2357.7434137355 Hartrees.
 NAtoms=   36 NActive=   36 NUniq=   13 SFac= 3.00D+00 NAtFMM=   80 NAOKFM=F Big=F
 One-electron integrals computed using PRISM.
   4 Symmetry operations used in ECPInt.
 ECPInt:  NShTT=    9591 NPrTT=   68474 LenC2=    9087 LenP2D=   38378.
 LDataN:  DoStor=T MaxTD1= 5 Len=  102
 NBasis=   238 RedAO= T  NBF=    73    46    49    70
 NBsUse=   238 1.00D-06 NBFU=    73    46    49    70
 Defaulting to unpruned grid for atomic number  45.
 Harris functional with IExCor=  404 diagonalized for initial guess.
 ExpMin= 2.57D-02 ExpMax= 7.82D+03 ExpMxC= 2.73D+02 IAcc=3 IRadAn=         5 AccDes= 0.00D+00
 HarFok:  IExCor=  404 AccDes= 0.00D+00 IRadAn=         5 IDoV= 1
 ScaDFX=  1.000000  1.000000  1.000000  1.000000
 Defaulting to unpruned grid for atomic number  45.
 Defaulting to unpruned grid for atomic number  45.
 Defaulting to unpruned grid for atomic number  45.
 Defaulting to unpruned grid for atomic number  45.
 Defaulting to unpruned grid for atomic number  45.
 Defaulting to unpruned grid for atomic number  45.
 FoFCou: FMM=F IPFlag=           0 FMFlag=      100000 FMFlg1=           0
         NFxFlg=           0 DoJE=T BraDBF=F KetDBF=T FulRan=T
         Omega=  0.000000  0.000000  1.000000  0.000000  0.000000 ICntrl=     500 IOpCl=  0
         NMat0=    1 NMatS0=    1 NMatT0=    0 NMatD0=    1 NMtDS0=    0 NMtDT0=    0
         I1Cent=           4 NGrid=           0.
 Petite list used in FoFCou.
 Initial guess orbital symmetries:
       Occupied  (AU) (AG) (AG) (AU) (BG) (BU) (AG) (AU) (BG) (BU)
                 (BU) (AG) (BU) (AG) (AG) (BU) (AG) (BU) (AG) (AU)
                 (AG) (BU) (BU) (BG) (BG) (AU) (AG) (AG) (BU) (BU)
                 (AG) (AU) (AU) (AU) (BG) (BG) (AG) (AG) (BU) (BU)
                 (AG) (BU) (AG) (BG) (BU) (BU) (AU) (AU) (BG) (BG)
                 (AG) (BU) (BU) (AG) (AG) (BU) (BU) (AG) (AG) (AU)
                 (AU) (BG) (AU) (BG) (AG) (BU) (BU) (AG) (BG) (BU)
                 (AU) (AG) (AG) (AU) (BG) (BG) (AU) (BU) (BU) (BG)
                 (BG) (AU) (AG) (AG) (BU) (BU) (BU) (BU) (AG)
       Virtual   (AU) (AG) (AG) (AU) (BG) (BG) (BU) (BU) (AG) (BG)
                 (AG) (BG) (AU) (AU) (AG) (BU) (AG) (BU) (BU) (AU)
                 (AG) (AG) (BG) (BU) (BU) (BG) (AU) (AG) (AU) (BG)
                 (AG) (BU) (BU) (AU) (AG) (AG) (BU) (AG) (BU) (AG)
                 (AG) (AU) (AU) (AG) (BU) (BU) (BG) (BG) (AG) (BU)
                 (BU) (BG) (BG) (AU) (AU) (AG) (BU) (AG) (BG) (BU)
                 (BG) (AU) (BU) (BU) (BG) (BG) (AU) (AG) (AG) (AU)
                 (AG) (AU) (BU) (BU) (AG) (BG) (AG) (BU) (AG) (BG)
                 (BU) (AU) (BU) (AU) (BU) (BU) (BG) (AG) (AG) (BU)
                 (AU) (AU) (AU) (BG) (AG) (AG) (BU) (BU) (BG) (BG)
                 (AG) (BU) (AG) (BU) (BG) (AU) (BG) (AG) (BU) (AU)
                 (AG) (AG) (BU) (BG) (AG) (BU) (AU) (AG) (AU) (BG)
                 (BU) (AG) (BU) (BG) (AG) (AG) (AU) (BG) (BU) (AU)
                 (AG) (BU) (AU) (BG) (BU) (BU) (AG) (AG) (AU) (BU)
                 (BU) (AU) (BG) (BG) (AG) (AU) (AG) (AU) (AG)
 The electronic state of the initial guess is 1-AG.
 Requested convergence on RMS density matrix=1.00D-08 within 128 cycles.
 Requested convergence on MAX density matrix=1.00D-06.
 Requested convergence on             energy=1.00D-06.
 No special actions if energy rises.
 Defaulting to unpruned grid for atomic number  45.
 Defaulting to unpruned grid for atomic number  45.
 Defaulting to unpruned grid for atomic number  45.
 Defaulting to unpruned grid for atomic number  45.
 Defaulting to unpruned grid for atomic number  45.
 Defaulting to unpruned grid for atomic number  45.
 EnCoef did   100 forward-backward iterations
 EnCoef did   100 forward-backward iterations
 EnCoef did   100 forward-backward iterations
 EnCoef did     1 forward-backward iterations
 SCF Done:  E(RB-P86) =  -1286.10632675     A.U. after   19 cycles
             Convg  =    0.2728D-08             -V/T =  2.1306

 **********************************************************************

            Population analysis using the SCF density.

 **********************************************************************

 Orbital symmetries:
       Occupied  (AU) (AG) (AG) (AU) (BG) (BU) (AG) (AU) (BG) (BU)
                 (AG) (BU) (AG) (BU) (BU) (AG) (BU) (AG) (AG) (AU)
                 (BU) (BU) (BG) (BG) (AG) (AU) (AG) (BU) (AG) (BU)
                 (AU) (AG) (AU) (BG) (AU) (BG) (AG) (BU) (AG) (BU)
                 (BU) (BG) (AG) (AG) (BU) (BU) (AU) (AU) (BG) (BG)
                 (AG) (BU) (BU) (AG) (BU) (BU) (AG) (AG) (AG) (AU)
                 (AU) (BG) (AU) (BG) (AG) (BU) (BU) (AG) (AG) (AU)
                 (AG) (BU) (BG) (BU) (AU) (BU) (BG) (AU) (BG) (BG)
                 (BG) (AU) (AG) (BU) (BU) (AG) (AU) (BG) (BG)
       Virtual   (AU) (AU) (AG) (BU) (BU) (AG) (AG) (AU) (AG) (BU)
                 (BU) (BG) (AG) (BG) (BU) (AG) (AU) (AG) (BG) (BU)
                 (BU) (AG) (AG) (AU) (AG) (BU) (BU) (BG) (BG) (AU)
                 (AG) (BU) (AG) (BU) (AU) (AG) (BU) (BU) (AG) (AG)
                 (AU) (BG) (AG) (AU) (BG) (AG) (BU) (BU) (AG) (BU)
                 (BU) (BG) (AU) (BG) (AU) (BU) (BG) (BU) (BG) (AG)
                 (AU) (BU) (AG) (BU) (AG) (BG) (BG) (AU) (BU) (BU)
                 (AG) (AG) (AU) (AG) (AU) (AG) (AU) (BU) (BG) (BU)
                 (AG) (BG) (BU) (AU) (AG) (AU) (BU) (BU) (BG) (AG)
                 (AU) (BU) (BG) (AG) (AU) (BG) (AG) (BU) (BG) (BU)
                 (BU) (AG) (AU) (BU) (AG) (BG) (BG) (AU) (AG) (BU)
                 (AG) (BG) (AG) (AG) (AG) (BU) (BU) (AG) (AU) (AU)
                 (BU) (BG) (BU) (AG) (BG) (AG) (AU) (BG) (BU) (AU)
                 (AU) (BU) (AG) (BG) (BU) (BU) (AG) (AG) (AU) (BU)
                 (BU) (AU) (BG) (BG) (AG) (AU) (AG) (AU) (AG)
 The electronic state is 1-AG.
 Alpha  occ. eigenvalues --  -18.81206 -18.81206 -18.78960 -18.78960 -18.78960
 Alpha  occ. eigenvalues --  -18.78960 -18.78523 -18.78522 -18.78522 -18.78522
 Alpha  occ. eigenvalues --  -10.03504 -10.03504 -10.03041 -10.03041  -9.91434
 Alpha  occ. eigenvalues --   -9.91434  -9.91094  -9.91094  -2.95707  -2.95480
 Alpha  occ. eigenvalues --   -1.79984  -1.79855  -1.79778  -1.79648  -1.79123
 Alpha  occ. eigenvalues --   -1.77281  -0.97988  -0.97571  -0.97327  -0.97199
 Alpha  occ. eigenvalues --   -0.94685  -0.94683  -0.89784  -0.89323  -0.89189
 Alpha  occ. eigenvalues --   -0.88936  -0.66867  -0.66691  -0.66478  -0.66330
 Alpha  occ. eigenvalues --   -0.51780  -0.51741  -0.49723  -0.48950  -0.48003
 Alpha  occ. eigenvalues --   -0.47599  -0.44629  -0.43857  -0.41747  -0.41327
 Alpha  occ. eigenvalues --   -0.41153  -0.40377  -0.40167  -0.40133  -0.39875
 Alpha  occ. eigenvalues --   -0.39698  -0.39347  -0.39168  -0.37343  -0.36701
 Alpha  occ. eigenvalues --   -0.35451  -0.35126  -0.35094  -0.34783  -0.34273
 Alpha  occ. eigenvalues --   -0.32929  -0.32591  -0.31587  -0.29997  -0.29518
 Alpha  occ. eigenvalues --   -0.29241  -0.27706  -0.27662  -0.26110  -0.25666
 Alpha  occ. eigenvalues --   -0.25655  -0.25171  -0.24971  -0.24923  -0.23982
 Alpha  occ. eigenvalues --   -0.23448  -0.23123  -0.20759  -0.19761  -0.19085
 Alpha  occ. eigenvalues --   -0.18915  -0.14608  -0.14435  -0.13865
 Alpha virt. eigenvalues --   -0.07313  -0.07162  -0.05859  -0.03522  -0.03152
 Alpha virt. eigenvalues --   -0.02478  -0.02091  -0.01324  -0.01029   0.03346
 Alpha virt. eigenvalues --    0.03938   0.05301   0.05971   0.07188   0.10933
 Alpha virt. eigenvalues --    0.11529   0.11920   0.12378   0.13809   0.13960
 Alpha virt. eigenvalues --    0.14011   0.14446   0.14994   0.15061   0.15296
 Alpha virt. eigenvalues --    0.16380   0.16763   0.16840   0.17334   0.17362
 Alpha virt. eigenvalues --    0.18155   0.18248   0.18470   0.18539   0.19636
 Alpha virt. eigenvalues --    0.20000   0.20490   0.20885   0.23044   0.24371
 Alpha virt. eigenvalues --    0.25485   0.26866   0.27096   0.27326   0.27572
 Alpha virt. eigenvalues --    0.28028   0.28997   0.29360   0.29988   0.31149
 Alpha virt. eigenvalues --    0.31403   0.32210   0.32392   0.32518   0.34696
 Alpha virt. eigenvalues --    0.36506   0.36678   0.36803   0.37567   0.38985
 Alpha virt. eigenvalues --    0.39532   0.40250   0.40255   0.40653   0.44059
 Alpha virt. eigenvalues --    0.45776   0.46121   0.46953   0.49692   0.50793
 Alpha virt. eigenvalues --    0.50817   0.52545   0.52623   0.55576   0.55581
 Alpha virt. eigenvalues --    0.60134   0.62630   0.64337   0.64743   0.64949
 Alpha virt. eigenvalues --    0.65864   0.67291   0.67936   0.71201   0.74435
 Alpha virt. eigenvalues --    0.75226   0.75260   0.75833   0.76628   0.76833
 Alpha virt. eigenvalues --    0.79141   0.81446   0.83164   0.84587   0.84780
 Alpha virt. eigenvalues --    0.85309   0.86215   0.86628   0.87223   0.87397
 Alpha virt. eigenvalues --    0.89879   0.90689   0.91260   0.92627   0.92761
 Alpha virt. eigenvalues --    0.93337   0.93450   0.94539   0.95345   0.97517
 Alpha virt. eigenvalues --    0.99704   1.00202   1.00207   1.01097   1.01762
 Alpha virt. eigenvalues --    1.02375   1.03762   1.04532   1.05326   1.06049
 Alpha virt. eigenvalues --    1.07347   1.07791   1.08780   1.08783   1.09554
 Alpha virt. eigenvalues --    1.13246   1.15117   1.18112   1.18471   1.19404
 Alpha virt. eigenvalues --    1.22359   1.27241   1.27773   1.32441   1.36062
 Alpha virt. eigenvalues --    1.37863   1.37912   1.69003   1.77699   1.78406
 Alpha virt. eigenvalues --    1.80755   1.84656   1.89939   1.90288   2.00161
 Alpha virt. eigenvalues --    2.03261   2.11049   5.91730   7.26023
          Condensed to atoms (all electrons):
              1          2          3          4          5          6
     1  C    4.915428   0.255473   0.002503  -0.000567  -0.021967  -0.022614
     2  C    0.255473   5.620453  -0.000517   0.000028   0.364698   0.354858
     3  C    0.002503  -0.000517   4.890411   0.258280   0.000002   0.000005
     4  C   -0.000567   0.000028   0.258280   5.615854   0.000000  -0.000001
     5  H   -0.021967   0.364698   0.000002   0.000000   0.459625  -0.018944
     6  H   -0.022614   0.354858   0.000005  -0.000001  -0.018944   0.459019
     7  H   -0.022614   0.354858   0.000005  -0.000001  -0.018944  -0.019539
     8  H   -0.000005  -0.000002  -0.022041   0.364503   0.000000   0.000000
     9  H    0.000005   0.000000  -0.022861   0.354966   0.000000   0.000000
    10  H    0.000005   0.000000  -0.022861   0.354966   0.000000   0.000000
    11  O    0.329080  -0.099306   0.000348   0.000003  -0.001871   0.001415
    12  O    0.329080  -0.099306   0.000348   0.000003  -0.001871   0.003592
    13  O   -0.000174   0.000013   0.336286  -0.098670   0.000000   0.000000
    14  O    0.000315   0.000008  -0.000136  -0.000004   0.000004   0.000000
    15  O   -0.000769  -0.000028  -0.000926  -0.000009   0.000000   0.000000
    16  Rh  -0.099935   0.001582  -0.099315   0.001894   0.000051  -0.000038
    17  Rh  -0.099935   0.001582  -0.099315   0.001894   0.000051   0.001542
    18  O   -0.000133  -0.000005  -0.000123   0.000010   0.000000   0.000000
    19  O   -0.000174   0.000013   0.336286  -0.098670   0.000000   0.000000
    20  C    0.002485  -0.000557  -0.000713  -0.000012  -0.000002   0.000006
    21  O   -0.000133  -0.000005  -0.000123   0.000010   0.000000   0.000000
    22  O    0.000315   0.000008  -0.000136  -0.000004   0.000004  -0.000001
    23  O   -0.000769  -0.000028  -0.000926  -0.000009   0.000000  -0.000001
    24  C   -0.000738  -0.000012   0.002485  -0.000529   0.000000   0.000000
    25  C   -0.000529   0.000028  -0.000012   0.000000  -0.000002   0.000000
    26  C   -0.000012   0.000000  -0.000557   0.000028   0.000000   0.000000
    27  H    0.000000   0.000000  -0.000002  -0.000002   0.000000   0.000000
    28  H    0.000000   0.000000   0.000006   0.000000   0.000000   0.000000
    29  H    0.000000   0.000000   0.000006   0.000000   0.000000   0.000000
    30  H    0.000002   0.000000   0.000000   0.000000   0.000000   0.000000
    31  H    0.000004  -0.000001   0.000000   0.000000   0.000000   0.000000
    32  H    0.000004  -0.000001   0.000000   0.000000   0.000000   0.000000
    33  H    0.000037   0.000000   0.000023   0.000000   0.000000   0.000000
    34  H    0.000034   0.000000   0.000069  -0.000006   0.000000   0.000000
    35  H    0.000034   0.000000   0.000069  -0.000006   0.000000   0.000000
    36  H    0.000037   0.000000   0.000023   0.000000   0.000000   0.000000
              7          8          9         10         11         12
     1  C   -0.022614  -0.000005   0.000005   0.000005   0.329080   0.329080
     2  C    0.354858  -0.000002   0.000000   0.000000  -0.099306  -0.099306
     3  C    0.000005  -0.022041  -0.022861  -0.022861   0.000348   0.000348
     4  C   -0.000001   0.364503   0.354966   0.354966   0.000003   0.000003
     5  H   -0.018944   0.000000   0.000000   0.000000  -0.001871  -0.001871
     6  H   -0.019539   0.000000   0.000000   0.000000   0.001415   0.003592
     7  H    0.459019   0.000000   0.000000   0.000000   0.003592   0.001415
     8  H    0.000000   0.458082  -0.019026  -0.019026   0.000004   0.000004
     9  H    0.000000  -0.019026   0.459365  -0.019432   0.000000  -0.000001
    10  H    0.000000  -0.019026  -0.019432   0.459365  -0.000001   0.000000
    11  O    0.003592   0.000004   0.000000  -0.000001   7.950748  -0.053996
    12  O    0.001415   0.000004  -0.000001   0.000000  -0.053996   7.950748
    13  O    0.000000  -0.001864   0.001416   0.003600  -0.002210   0.000014
    14  O   -0.000001   0.000000   0.000000   0.000000  -0.002195   0.000012
    15  O   -0.000001   0.000000   0.000000  -0.000001  -0.002071  -0.000003
    16  Rh   0.001542   0.000176   0.000038   0.001616   0.206327  -0.030737
    17  Rh  -0.000038   0.000176   0.001616   0.000038  -0.030737   0.206327
    18  O    0.000000   0.000000   0.000000   0.000000  -0.001252  -0.000014
    19  O    0.000000  -0.001864   0.003600   0.001416   0.000014  -0.002210
    20  C    0.000006   0.000000   0.000000   0.000000  -0.000123  -0.000123
    21  O    0.000000   0.000000   0.000000   0.000000  -0.000014  -0.001252
    22  O    0.000000   0.000000   0.000000   0.000000   0.000012  -0.002195
    23  O    0.000000   0.000000  -0.000001   0.000000  -0.000003  -0.002071
    24  C    0.000000   0.000002   0.000004   0.000004  -0.000133  -0.000133
    25  C    0.000000   0.000000   0.000000   0.000000   0.000010   0.000010
    26  C    0.000000   0.000000  -0.000001  -0.000001  -0.000005  -0.000005
    27  H    0.000000   0.000000   0.000000   0.000000   0.000000   0.000000
    28  H    0.000000   0.000000   0.000000   0.000000   0.000000   0.000000
    29  H    0.000000   0.000000   0.000000   0.000000   0.000000   0.000000
    30  H    0.000000   0.000000   0.000000   0.000000   0.000000   0.000000
    31  H    0.000000   0.000000   0.000000   0.000000   0.000000   0.000000
    32  H    0.000000   0.000000   0.000000   0.000000   0.000000   0.000000
    33  H    0.000000   0.000000   0.000000   0.000000   0.000000   0.000003
    34  H    0.000000   0.000000   0.000000   0.000000   0.000000   0.000000
    35  H    0.000000   0.000000   0.000000   0.000000   0.000000   0.000000
    36  H    0.000000   0.000000   0.000000   0.000000   0.000003   0.000000
             13         14         15         16         17         18
     1  C   -0.000174   0.000315  -0.000769  -0.099935  -0.099935  -0.000133
     2  C    0.000013   0.000008  -0.000028   0.001582   0.001582  -0.000005
     3  C    0.336286  -0.000136  -0.000926  -0.099315  -0.099315  -0.000123
     4  C   -0.098670  -0.000004  -0.000009   0.001894   0.001894   0.000010
     5  H    0.000000   0.000004   0.000000   0.000051   0.000051   0.000000
     6  H    0.000000   0.000000   0.000000  -0.000038   0.001542   0.000000
     7  H    0.000000  -0.000001  -0.000001   0.001542  -0.000038   0.000000
     8  H   -0.001864   0.000000   0.000000   0.000176   0.000176   0.000000
     9  H    0.001416   0.000000   0.000000   0.000038   0.001616   0.000000
    10  H    0.003600   0.000000  -0.000001   0.001616   0.000038   0.000000
    11  O   -0.002210  -0.002195  -0.002071   0.206327  -0.030737  -0.001252
    12  O    0.000014   0.000012  -0.000003  -0.030737   0.206327  -0.000014
    13  O    7.959794  -0.001261  -0.003137   0.200467  -0.028014  -0.002195
    14  O   -0.001261   7.959794  -0.003137   0.200467  -0.028014  -0.002210
    15  O   -0.003137  -0.003137   8.138408   0.055090  -0.017551  -0.002071
    16  Rh   0.200467   0.200467   0.055090  16.643589  -0.240778   0.206327
    17  Rh  -0.028014  -0.028014  -0.017551  -0.240778  16.643589  -0.030737
    18  O   -0.002195  -0.002210  -0.002071   0.206327  -0.030737   7.950748
    19  O   -0.055798  -0.000014   0.000000  -0.028014   0.200467   0.000012
    20  C   -0.000136   0.336286  -0.000926  -0.099315  -0.099315   0.000348
    21  O    0.000012   0.000014  -0.000003  -0.030737   0.206327  -0.053996
    22  O   -0.000014  -0.055798   0.000000  -0.028014   0.200467   0.000014
    23  O    0.000000   0.000000   0.000000  -0.017551   0.055090  -0.000003
    24  C    0.000315  -0.000174  -0.000769  -0.099935  -0.099935   0.329080
    25  C   -0.000004  -0.098670  -0.000009   0.001894   0.001894   0.000003
    26  C    0.000008   0.000013  -0.000028   0.001582   0.001582  -0.099306
    27  H    0.000004   0.000000   0.000000   0.000051   0.000051  -0.001871
    28  H   -0.000001   0.000000  -0.000001   0.001542  -0.000038   0.003592
    29  H    0.000000   0.000000   0.000000  -0.000038   0.001542   0.001415
    30  H    0.000000  -0.001864   0.000000   0.000176   0.000176   0.000004
    31  H    0.000000   0.003600  -0.000001   0.001616   0.000038  -0.000001
    32  H    0.000000   0.001416   0.000000   0.000038   0.001616   0.000000
    33  H    0.000000   0.000000   0.000000   0.000705  -0.004567   0.000000
    34  H    0.000000   0.000000   0.000000   0.000705  -0.004567   0.000000
    35  H    0.000452   0.000084   0.260544  -0.004567   0.000705   0.000003
    36  H    0.000084   0.000452   0.260544  -0.004567   0.000705   0.000000
             19         20         21         22         23         24
     1  C   -0.000174   0.002485  -0.000133   0.000315  -0.000769  -0.000738
     2  C    0.000013  -0.000557  -0.000005   0.000008  -0.000028  -0.000012
     3  C    0.336286  -0.000713  -0.000123  -0.000136  -0.000926   0.002485
     4  C   -0.098670  -0.000012   0.000010  -0.000004  -0.000009  -0.000529
     5  H    0.000000  -0.000002   0.000000   0.000004   0.000000   0.000000
     6  H    0.000000   0.000006   0.000000  -0.000001  -0.000001   0.000000
     7  H    0.000000   0.000006   0.000000   0.000000   0.000000   0.000000
     8  H   -0.001864   0.000000   0.000000   0.000000   0.000000   0.000002
     9  H    0.003600   0.000000   0.000000   0.000000  -0.000001   0.000004
    10  H    0.001416   0.000000   0.000000   0.000000   0.000000   0.000004
    11  O    0.000014  -0.000123  -0.000014   0.000012  -0.000003  -0.000133
    12  O   -0.002210  -0.000123  -0.001252  -0.002195  -0.002071  -0.000133
    13  O   -0.055798  -0.000136   0.000012  -0.000014   0.000000   0.000315
    14  O   -0.000014   0.336286   0.000014  -0.055798   0.000000  -0.000174
    15  O    0.000000  -0.000926  -0.000003   0.000000   0.000000  -0.000769
    16  Rh  -0.028014  -0.099315  -0.030737  -0.028014  -0.017551  -0.099935
    17  Rh   0.200467  -0.099315   0.206327   0.200467   0.055090  -0.099935
    18  O    0.000012   0.000348  -0.053996   0.000014  -0.000003   0.329080
    19  O    7.959794  -0.000136  -0.002195  -0.001261  -0.003137   0.000315
    20  C   -0.000136   4.890411   0.000348   0.336286  -0.000926   0.002503
    21  O   -0.002195   0.000348   7.950748  -0.002210  -0.002071   0.329080
    22  O   -0.001261   0.336286  -0.002210   7.959794  -0.003137  -0.000174
    23  O   -0.003137  -0.000926  -0.002071  -0.003137   8.138408  -0.000769
    24  C    0.000315   0.002503   0.329080  -0.000174  -0.000769   4.915428
    25  C   -0.000004   0.258280   0.000003  -0.098670  -0.000009  -0.000567
    26  C    0.000008  -0.000517  -0.099306   0.000013  -0.000028   0.255473
    27  H    0.000004   0.000002  -0.001871   0.000000   0.000000  -0.021967
    28  H    0.000000   0.000005   0.001415   0.000000   0.000000  -0.022614
    29  H   -0.000001   0.000005   0.003592   0.000000  -0.000001  -0.022614
    30  H    0.000000  -0.022041   0.000004  -0.001864   0.000000  -0.000005
    31  H    0.000000  -0.022861   0.000000   0.001416   0.000000   0.000005
    32  H    0.000000  -0.022861  -0.000001   0.003600  -0.000001   0.000005
    33  H    0.000084   0.000069   0.000000   0.000452   0.260544   0.000034
    34  H    0.000452   0.000023   0.000003   0.000084   0.260544   0.000037
    35  H    0.000000   0.000023   0.000000   0.000000   0.000000   0.000037
    36  H    0.000000   0.000069   0.000000   0.000000   0.000000   0.000034
             25         26         27         28         29         30
     1  C   -0.000529  -0.000012   0.000000   0.000000   0.000000   0.000002
     2  C    0.000028   0.000000   0.000000   0.000000   0.000000   0.000000
     3  C   -0.000012  -0.000557  -0.000002   0.000006   0.000006   0.000000
     4  C    0.000000   0.000028  -0.000002   0.000000   0.000000   0.000000
     5  H   -0.000002   0.000000   0.000000   0.000000   0.000000   0.000000
     6  H    0.000000   0.000000   0.000000   0.000000   0.000000   0.000000
     7  H    0.000000   0.000000   0.000000   0.000000   0.000000   0.000000
     8  H    0.000000   0.000000   0.000000   0.000000   0.000000   0.000000
     9  H    0.000000  -0.000001   0.000000   0.000000   0.000000   0.000000
    10  H    0.000000  -0.000001   0.000000   0.000000   0.000000   0.000000
    11  O    0.000010  -0.000005   0.000000   0.000000   0.000000   0.000000
    12  O    0.000010  -0.000005   0.000000   0.000000   0.000000   0.000000
    13  O   -0.000004   0.000008   0.000004  -0.000001   0.000000   0.000000
    14  O   -0.098670   0.000013   0.000000   0.000000   0.000000  -0.001864
    15  O   -0.000009  -0.000028   0.000000  -0.000001   0.000000   0.000000
    16  Rh   0.001894   0.001582   0.000051   0.001542  -0.000038   0.000176
    17  Rh   0.001894   0.001582   0.000051  -0.000038   0.001542   0.000176
    18  O    0.000003  -0.099306  -0.001871   0.003592   0.001415   0.000004
    19  O   -0.000004   0.000008   0.000004   0.000000  -0.000001   0.000000
    20  C    0.258280  -0.000517   0.000002   0.000005   0.000005  -0.022041
    21  O    0.000003  -0.099306  -0.001871   0.001415   0.003592   0.000004
    22  O   -0.098670   0.000013   0.000000   0.000000   0.000000  -0.001864
    23  O   -0.000009  -0.000028   0.000000   0.000000  -0.000001   0.000000
    24  C   -0.000567   0.255473  -0.021967  -0.022614  -0.022614  -0.000005
    25  C    5.615854   0.000028   0.000000  -0.000001  -0.000001   0.364503
    26  C    0.000028   5.620453   0.364698   0.354858   0.354858  -0.000002
    27  H    0.000000   0.364698   0.459625  -0.018944  -0.018944   0.000000
    28  H   -0.000001   0.354858  -0.018944   0.459019  -0.019539   0.000000
    29  H   -0.000001   0.354858  -0.018944  -0.019539   0.459019   0.000000
    30  H    0.364503  -0.000002   0.000000   0.000000   0.000000   0.458082
    31  H    0.354966   0.000000   0.000000   0.000000   0.000000  -0.019026
    32  H    0.354966   0.000000   0.000000   0.000000   0.000000  -0.019026
    33  H   -0.000006   0.000000   0.000000   0.000000   0.000000   0.000000
    34  H    0.000000   0.000000   0.000000   0.000000   0.000000   0.000000
    35  H    0.000000   0.000000   0.000000   0.000000   0.000000   0.000000
    36  H   -0.000006   0.000000   0.000000   0.000000   0.000000   0.000000
             31         32         33         34         35         36
     1  C    0.000004   0.000004   0.000037   0.000034   0.000034   0.000037
     2  C   -0.000001  -0.000001   0.000000   0.000000   0.000000   0.000000
     3  C    0.000000   0.000000   0.000023   0.000069   0.000069   0.000023
     4  C    0.000000   0.000000   0.000000  -0.000006  -0.000006   0.000000
     5  H    0.000000   0.000000   0.000000   0.000000   0.000000   0.000000
     6  H    0.000000   0.000000   0.000000   0.000000   0.000000   0.000000
     7  H    0.000000   0.000000   0.000000   0.000000   0.000000   0.000000
     8  H    0.000000   0.000000   0.000000   0.000000   0.000000   0.000000
     9  H    0.000000   0.000000   0.000000   0.000000   0.000000   0.000000
    10  H    0.000000   0.000000   0.000000   0.000000   0.000000   0.000000
    11  O    0.000000   0.000000   0.000000   0.000000   0.000000   0.000003
    12  O    0.000000   0.000000   0.000003   0.000000   0.000000   0.000000
    13  O    0.000000   0.000000   0.000000   0.000000   0.000452   0.000084
    14  O    0.003600   0.001416   0.000000   0.000000   0.000084   0.000452
    15  O   -0.000001   0.000000   0.000000   0.000000   0.260544   0.260544
    16  Rh   0.001616   0.000038   0.000705   0.000705  -0.004567  -0.004567
    17  Rh   0.000038   0.001616  -0.004567  -0.004567   0.000705   0.000705
    18  O   -0.000001   0.000000   0.000000   0.000000   0.000003   0.000000
    19  O    0.000000   0.000000   0.000084   0.000452   0.000000   0.000000
    20  C   -0.022861  -0.022861   0.000069   0.000023   0.000023   0.000069
    21  O    0.000000  -0.000001   0.000000   0.000003   0.000000   0.000000
    22  O    0.001416   0.003600   0.000452   0.000084   0.000000   0.000000
    23  O    0.000000  -0.000001   0.260544   0.260544   0.000000   0.000000
    24  C    0.000005   0.000005   0.000034   0.000037   0.000037   0.000034
    25  C    0.354966   0.354966  -0.000006   0.000000   0.000000  -0.000006
    26  C    0.000000   0.000000   0.000000   0.000000   0.000000   0.000000
    27  H    0.000000   0.000000   0.000000   0.000000   0.000000   0.000000
    28  H    0.000000   0.000000   0.000000   0.000000   0.000000   0.000000
    29  H    0.000000   0.000000   0.000000   0.000000   0.000000   0.000000
    30  H   -0.019026  -0.019026   0.000000   0.000000   0.000000   0.000000
    31  H    0.459365  -0.019432   0.000000   0.000000   0.000000   0.000000
    32  H   -0.019432   0.459365   0.000000   0.000000   0.000000   0.000000
    33  H    0.000000   0.000000   0.358472  -0.029061   0.000000   0.000000
    34  H    0.000000   0.000000  -0.029061   0.358472   0.000000   0.000000
    35  H    0.000000   0.000000   0.000000   0.000000   0.358472  -0.029061
    36  H    0.000000   0.000000   0.000000   0.000000  -0.029061   0.358472
 Mulliken atomic charges:
              1
     1  C    0.436228
     2  C   -0.753835
     3  C    0.443409
     4  C   -0.753951
     5  H    0.239165
     6  H    0.240699
     7  H    0.240699
     8  H    0.240882
     9  H    0.240309
    10  H    0.240309
    11  O   -0.297638
    12  O   -0.297638
    13  O   -0.308989
    14  O   -0.308989
    15  O   -0.683149
    16  Rh   0.256066
    17  Rh   0.256066
    18  O   -0.297638
    19  O   -0.308989
    20  C    0.443409
    21  O   -0.297638
    22  O   -0.308989
    23  O   -0.683149
    24  C    0.436228
    25  C   -0.753951
    26  C   -0.753835
    27  H    0.239165
    28  H    0.240699
    29  H    0.240699
    30  H    0.240882
    31  H    0.240309
    32  H    0.240309
    33  H    0.413211
    34  H    0.413211
    35  H    0.413211
    36  H    0.413211
 Sum of Mulliken atomic charges =   0.00000
 Mulliken charges with hydrogens summed into heavy atoms:
              1
     1  C    0.436228
     2  C   -0.033271
     3  C    0.443409
     4  C   -0.032451
    11  O   -0.297638
    12  O   -0.297638
    13  O   -0.308989
    14  O   -0.308989
    15  O    0.143274
    16  Rh   0.256066
    17  Rh   0.256066
    18  O   -0.297638
    19  O   -0.308989
    20  C    0.443409
    21  O   -0.297638
    22  O   -0.308989
    23  O    0.143274
    24  C    0.436228
    25  C   -0.032451
    26  C   -0.033271
 Sum of Mulliken charges with hydrogens summed into heavy atoms =   0.00000
 Electronic spatial extent (au):  <R**2>=           5767.4839
 Charge=              0.0000 electrons
 Dipole moment (field-independent basis, Debye):
    X=              0.0000    Y=              0.0000    Z=              0.0000  Tot=              0.0000
 Quadrupole moment (field-independent basis, Debye-Ang):
   XX=           -126.5971   YY=           -134.2239   ZZ=           -112.5803
   XY=              0.0710   XZ=              0.0000   YZ=              0.0000
 Traceless Quadrupole moment (field-independent basis, Debye-Ang):
   XX=             -2.1300   YY=             -9.7568   ZZ=             11.8868
   XY=              0.0710   XZ=              0.0000   YZ=              0.0000
 Octapole moment (field-independent basis, Debye-Ang**2):
  XXX=              0.0000  YYY=              0.0000  ZZZ=              0.0000  XYY=              0.0000
  XXY=              0.0000  XXZ=              0.0000  XZZ=              0.0000  YZZ=              0.0000
  YYZ=              0.0000  XYZ=              0.0000
 Hexadecapole moment (field-independent basis, Debye-Ang**3):
 XXXX=          -2398.2813 YYYY=          -2408.0003 ZZZZ=           -801.4205 XXXY=              3.3779
 XXXZ=              0.0000 YYYX=             -3.4575 YYYZ=              0.0000 ZZZX=              0.0000
 ZZZY=              0.0000 XXYY=           -883.6007 XXZZ=           -731.5908 YYZZ=           -846.1386
 XXYZ=              0.0000 YYXZ=              0.0000 ZZXY=              0.5648
 N-N= 2.357743413735D+03 E-N=-7.687369438372D+03  KE= 1.137545885460D+03
 Symmetry AG   KE= 3.806814851419D+02
 Symmetry BG   KE= 1.908016937945D+02
 Symmetry AU   KE= 2.420506544717D+02
 Symmetry BU   KE= 3.240120520518D+02
   4 Symmetry operations used in ECPInt.
 ECPInt:  NShTT=    9591 NPrTT=   68474 LenC2=    9087 LenP2D=   38378.
 LDataN:  DoStor=T MaxTD1= 6 Len=  172
 Calling FoFJK, ICntrl=      2527 FMM=F ISym2X=1 I1Cent= 0 IOpClX= 0 NMat=1 NMatS=1 NMatT=0.
 Defaulting to unpruned grid for atomic number  45.
 Defaulting to unpruned grid for atomic number  45.
 Defaulting to unpruned grid for atomic number  45.
 Defaulting to unpruned grid for atomic number  45.
 Defaulting to unpruned grid for atomic number  45.
 Defaulting to unpruned grid for atomic number  45.
 ***** Axes restored to original set *****
 -------------------------------------------------------------------
 Center     Atomic                   Forces (Hartrees/Bohr)
 Number     Number              X              Y              Z
 -------------------------------------------------------------------
      1        6          -0.000000261    0.000000101    0.000000000
      2        6           0.000000389    0.000000033    0.000000000
      3        6           0.000000366    0.000000033    0.000000000
      4        6           0.000000503   -0.000000011    0.000000000
      5        1          -0.000000051   -0.000000020    0.000000000
      6        1          -0.000000023   -0.000000079   -0.000000182
      7        1          -0.000000023   -0.000000079    0.000000182
      8        1          -0.000000182   -0.000000513    0.000000000
      9        1          -0.000000113    0.000000089   -0.000000286
     10        1          -0.000000113    0.000000089    0.000000286
     11        8          -0.000000507    0.000000017    0.000000339
     12        8          -0.000000507    0.000000017   -0.000000339
     13        8          -0.000000251   -0.000000670   -0.000000442
     14        8           0.000000251    0.000000670   -0.000000442
     15        8           0.000000000    0.000000000    0.000000116
     16       45           0.000000000    0.000000000   -0.000000064
     17       45           0.000000000    0.000000000    0.000000064
     18        8           0.000000507   -0.000000017    0.000000339
     19        8          -0.000000251   -0.000000670    0.000000442
     20        6          -0.000000366   -0.000000033    0.000000000
     21        8           0.000000507   -0.000000017   -0.000000339
     22        8           0.000000251    0.000000670    0.000000442
     23        8           0.000000000    0.000000000   -0.000000116
     24        6           0.000000261   -0.000000101    0.000000000
     25        6          -0.000000503    0.000000011    0.000000000
     26        6          -0.000000389   -0.000000033    0.000000000
     27        1           0.000000051    0.000000020    0.000000000
     28        1           0.000000023    0.000000079    0.000000182
     29        1           0.000000023    0.000000079   -0.000000182
     30        1           0.000000182    0.000000513    0.000000000
     31        1           0.000000113   -0.000000089    0.000000286
     32        1           0.000000113   -0.000000089   -0.000000286
     33        1           0.000000043   -0.000000019    0.000000074
     34        1          -0.000000043    0.000000019    0.000000074
     35        1          -0.000000043    0.000000019   -0.000000074
     36        1           0.000000043   -0.000000019   -0.000000074
 -------------------------------------------------------------------
 Cartesian Forces:  Max     0.000000670 RMS     0.000000251

 GradGradGradGradGradGradGradGradGradGradGradGradGradGradGradGradGradGrad
 Berny optimization.
 Internal  Forces:  Max     0.000000492 RMS     0.000000176
 Search for a local minimum.
 Step number   1 out of a maximum of  216
 All quantities printed in internal units (Hartrees-Bohrs-Radians)
 Mixed Optimization -- En-DIIS/RFO-DIIS
 Second derivative matrix not updated -- first step.
     Eigenvalues ---    0.00230   0.00230   0.00230   0.00230   0.00397
     Eigenvalues ---    0.00511   0.00511   0.00515   0.00515   0.01149
     Eigenvalues ---    0.01206   0.01262   0.01264   0.01734   0.01738
     Eigenvalues ---    0.02168   0.02194   0.02251   0.02254   0.02640
     Eigenvalues ---    0.05176   0.05176   0.07206   0.07206   0.07207
     Eigenvalues ---    0.07207   0.07421   0.07421   0.07426   0.07426
     Eigenvalues ---    0.08475   0.09377   0.09377   0.10017   0.10020
     Eigenvalues ---    0.11449   0.13186   0.13652   0.13672   0.14817
     Eigenvalues ---    0.14817   0.14837   0.14838   0.14891   0.15297
     Eigenvalues ---    0.15482   0.16000   0.16000   0.16000   0.16000
     Eigenvalues ---    0.16000   0.16000   0.16000   0.16000   0.16000
     Eigenvalues ---    0.16000   0.16000   0.16000   0.16000   0.16000
     Eigenvalues ---    0.16000   0.16000   0.17475   0.17489   0.18566
     Eigenvalues ---    0.18572   0.24113   0.24303   0.24307   0.24422
     Eigenvalues ---    0.24997   0.24997   0.24997   0.24997   0.30438
     Eigenvalues ---    0.30438   0.30468   0.30468   0.33001   0.33001
     Eigenvalues ---    0.33002   0.33002   0.33499   0.33499   0.33499
     Eigenvalues ---    0.33499   0.33500   0.33500   0.33500   0.33500
     Eigenvalues ---    0.51079   0.51079   0.51079   0.51079   0.55580
     Eigenvalues ---    0.56741   0.56921   0.57832   0.62151   0.62194
     Eigenvalues ---    0.62249   0.622821000.000001000.000001000.00000
     Eigenvalues --- 1000.000001000.000001000.000001000.000001000.00000
     Eigenvalues --- 1000.000001000.000001000.000001000.000001000.00000
     Eigenvalues --- 1000.000001000.000001000.000001000.000001000.00000
     Eigenvalues --- 1000.000001000.000001000.000001000.000001000.00000
     Eigenvalues --- 1000.000001000.000001000.000001000.000001000.00000
     Eigenvalues --- 1000.000001000.000001000.000001000.000001000.00000
     Eigenvalues --- 1000.000001000.000001000.000001000.000001000.00000
     Eigenvalues --- 1000.000001000.000001000.000001000.000001000.00000
     Eigenvalues --- 1000.000001000.000001000.000001000.000001000.00000
     Eigenvalues --- 1000.000001000.000001000.000001000.000001000.00000
     Eigenvalues --- 1000.000001000.000001000.000001000.000001000.00000
     Eigenvalues --- 1000.000001000.000001000.000001000.000001000.00000
     Eigenvalues --- 1000.000001000.000001000.000001000.000001000.00000
     Eigenvalues --- 1000.000001000.000001000.000001000.000001000.00000
     Eigenvalues --- 1000.000001000.000001000.000001000.000001000.00000
     Eigenvalues --- 1000.000001000.000001000.000001000.000001000.00000
     Eigenvalues --- 1000.000001000.000001000.000001000.000001000.00000
     Eigenvalues --- 1000.000001000.000001000.000001000.000001000.00000
     Eigenvalues --- 1000.000001000.000001000.000001000.000001000.00000
     Eigenvalues --- 1000.000001000.000001000.000001000.000001000.00000
     Eigenvalues --- 1000.000001000.000001000.000001000.000001000.00000
     Eigenvalues --- 1000.000001000.000001000.000001000.000001000.00000
     Eigenvalues --- 1000.000001000.000001000.000001000.000001000.00000
     Eigenvalues --- 1000.000001000.000001000.000001000.000001000.00000
     Eigenvalues --- 1000.000001000.000001000.000001000.000001000.00000
     Eigenvalues --- 1000.000001000.000001000.000001000.000001000.00000
     Eigenvalues --- 1000.000001000.000001000.000001000.000001000.00000
 RFO step:  Lambda= 0.00000000D+00 EMin= 2.30000000D-03
 Linear search not attempted -- first point.
 Iteration  1 RMS(Cart)=  0.00000817 RMS(Int)=  0.00000000
 Iteration  2 RMS(Cart)=  0.00000000 RMS(Int)=  0.00000000
 ClnCor:  largest displacement from symmetrization is 6.27D-08 for atom    22.
 Variable       Old X    -DE/DX   Delta X   Delta X   Delta X     New X
                                 (Linear)    (Quad)   (Total)
    R1        2.87099   0.00000   0.00000   0.00000   0.00000   2.87099
    R2        2.48369   0.00000   0.00000   0.00000   0.00000   2.48369
    R3        2.48369   0.00000   0.00000   0.00000   0.00000   2.48369
    R4        2.09050   0.00000   0.00000   0.00000   0.00000   2.09050
    R5        2.08185   0.00000   0.00000   0.00000   0.00000   2.08185
    R6        2.08185   0.00000   0.00000   0.00000   0.00000   2.08185
    R7        2.87039   0.00000   0.00000   0.00000   0.00000   2.87039
    R8        2.48397   0.00000   0.00000   0.00000   0.00000   2.48397
    R9        2.48397   0.00000   0.00000   0.00000   0.00000   2.48397
   R10        2.09048   0.00000   0.00000   0.00000   0.00000   2.09048
   R11        2.08183   0.00000   0.00000   0.00000   0.00000   2.08183
   R12        2.08183   0.00000   0.00000   0.00000   0.00000   2.08183
   R13        3.92528   0.00000   0.00000   0.00000   0.00000   3.92528
   R14        3.92528   0.00000   0.00000   0.00000   0.00000   3.92528
   R15        3.92426   0.00000   0.00000   0.00000   0.00000   3.92426
   R16        3.92426   0.00000   0.00000   0.00000   0.00000   3.92426
   R17        2.48397   0.00000   0.00000   0.00000   0.00000   2.48397
   R18        4.29929   0.00000   0.00000   0.00000   0.00000   4.29929
   R19        1.85491   0.00000   0.00000   0.00000   0.00000   1.85491
   R20        1.85491   0.00000   0.00000   0.00000   0.00000   1.85491
   R21        4.63024   0.00000   0.00000   0.00000   0.00000   4.63025
   R22        3.92528   0.00000   0.00000   0.00000   0.00000   3.92528
   R23        3.92426   0.00000   0.00000   0.00000   0.00000   3.92426
   R24        3.92528   0.00000   0.00000   0.00000   0.00000   3.92528
   R25        3.92426   0.00000   0.00000   0.00000   0.00000   3.92426
   R26        4.29929   0.00000   0.00000   0.00000   0.00000   4.29929
   R27        2.48369   0.00000   0.00000   0.00000   0.00000   2.48369
   R28        2.48397   0.00000   0.00000   0.00000   0.00000   2.48397
   R29        2.87039   0.00000   0.00000   0.00000   0.00000   2.87039
   R30        2.48369   0.00000   0.00000   0.00000   0.00000   2.48369
   R31        1.85491   0.00000   0.00000   0.00000   0.00000   1.85491
   R32        1.85491   0.00000   0.00000   0.00000   0.00000   1.85491
   R33        2.87099   0.00000   0.00000   0.00000   0.00000   2.87099
   R34        2.09048   0.00000   0.00000   0.00000   0.00000   2.09048
   R35        2.08183   0.00000   0.00000   0.00000   0.00000   2.08183
   R36        2.08183   0.00000   0.00000   0.00000   0.00000   2.08183
   R37        2.09050   0.00000   0.00000   0.00000   0.00000   2.09050
   R38        2.08185   0.00000   0.00000   0.00000   0.00000   2.08185
   R39        2.08185   0.00000   0.00000   0.00000   0.00000   2.08185
    A1        2.04744   0.00000   0.00000   0.00000   0.00000   2.04744
    A2        2.04744   0.00000   0.00000   0.00000   0.00000   2.04744
    A3        2.18810   0.00000   0.00000   0.00000   0.00000   2.18810
    A4        1.90863   0.00000   0.00000   0.00000   0.00000   1.90863
    A5        1.92162   0.00000   0.00000   0.00000   0.00000   1.92162
    A6        1.92162   0.00000   0.00000   0.00000   0.00000   1.92162
    A7        1.88966   0.00000   0.00000   0.00000   0.00000   1.88966
    A8        1.88966   0.00000   0.00000   0.00000   0.00000   1.88966
    A9        1.93195   0.00000   0.00000   0.00000   0.00000   1.93195
   A10        2.04856   0.00000   0.00000   0.00000   0.00000   2.04856
   A11        2.04856   0.00000   0.00000   0.00000   0.00000   2.04856
   A12        2.18585   0.00000   0.00000   0.00000   0.00000   2.18585
   A13        1.90887   0.00000   0.00000   0.00000   0.00000   1.90887
   A14        1.92220   0.00000   0.00000   0.00000   0.00000   1.92220
   A15        1.92220   0.00000   0.00000   0.00000   0.00000   1.92220
   A16        1.88994   0.00000   0.00000   0.00000   0.00000   1.88994
   A17        1.88994   0.00000   0.00000   0.00000   0.00000   1.88994
   A18        1.93001   0.00000   0.00000   0.00000   0.00000   1.93001
   A19        2.07510   0.00000   0.00000   0.00000   0.00000   2.07510
   A20        2.07510   0.00000   0.00000   0.00000   0.00000   2.07510
   A21        2.07650   0.00000   0.00000   0.00000   0.00000   2.07650
   A22        2.07650   0.00000   0.00000   0.00000   0.00000   2.07650
   A23        2.14985   0.00000   0.00000   0.00000   0.00000   2.14985
   A24        2.14985   0.00000   0.00000   0.00000   0.00000   2.14985
   A25        1.98349   0.00000   0.00000   0.00000   0.00000   1.98349
   A26        1.56987   0.00000   0.00000   0.00001   0.00001   1.56988
   A27        1.57018   0.00000   0.00000  -0.00001  -0.00001   1.57017
   A28        1.59841   0.00000   0.00000   0.00000   0.00000   1.59841
   A29        1.54318   0.00000   0.00000   0.00000   0.00000   1.54318
   A30        1.59868   0.00000   0.00000   0.00000   0.00000   1.59868
   A31        1.54291   0.00000   0.00000   0.00000   0.00000   1.54291
   A32        1.57018   0.00000   0.00000  -0.00001  -0.00001   1.57017
   A33        1.59868   0.00000   0.00000   0.00000   0.00000   1.59868
   A34        1.54291   0.00000   0.00000   0.00000   0.00000   1.54291
   A35        1.56987   0.00000   0.00000   0.00001   0.00001   1.56988
   A36        1.59841   0.00000   0.00000   0.00000   0.00000   1.59841
   A37        1.54318   0.00000   0.00000   0.00000   0.00000   1.54318
   A38        1.54318   0.00000   0.00000   0.00000   0.00000   1.54318
   A39        1.56987   0.00000   0.00000   0.00001   0.00001   1.56988
   A40        1.57018   0.00000   0.00000  -0.00001  -0.00001   1.57017
   A41        1.59841   0.00000   0.00000   0.00000   0.00000   1.59841
   A42        1.54291   0.00000   0.00000   0.00000   0.00000   1.54291
   A43        1.54318   0.00000   0.00000   0.00000   0.00000   1.54318
   A44        1.54291   0.00000   0.00000   0.00000   0.00000   1.54291
   A45        1.57018   0.00000   0.00000  -0.00001  -0.00001   1.57017
   A46        1.59868   0.00000   0.00000   0.00000   0.00000   1.59868
   A47        1.56987   0.00000   0.00000   0.00001   0.00001   1.56988
   A48        1.59841   0.00000   0.00000   0.00000   0.00000   1.59841
   A49        1.59868   0.00000   0.00000   0.00000   0.00000   1.59868
   A50        2.07510   0.00000   0.00000   0.00000   0.00000   2.07510
   A51        2.07650   0.00000   0.00000   0.00000   0.00000   2.07650
   A52        2.18585   0.00000   0.00000   0.00000   0.00000   2.18585
   A53        2.04856   0.00000   0.00000   0.00000   0.00000   2.04856
   A54        2.04856   0.00000   0.00000   0.00000   0.00000   2.04856
   A55        2.07510   0.00000   0.00000   0.00000   0.00000   2.07510
   A56        2.07650   0.00000   0.00000   0.00000   0.00000   2.07650
   A57        2.14985   0.00000   0.00000   0.00000   0.00000   2.14985
   A58        2.14985   0.00000   0.00000   0.00000   0.00000   2.14985
   A59        1.98349   0.00000   0.00000   0.00000   0.00000   1.98349
   A60        2.18810   0.00000   0.00000   0.00000   0.00000   2.18810
   A61        2.04744   0.00000   0.00000   0.00000   0.00000   2.04744
   A62        2.04744   0.00000   0.00000   0.00000   0.00000   2.04744
   A63        1.90887   0.00000   0.00000   0.00000   0.00000   1.90887
   A64        1.92220   0.00000   0.00000   0.00000   0.00000   1.92220
   A65        1.92220   0.00000   0.00000   0.00000   0.00000   1.92220
   A66        1.88994   0.00000   0.00000   0.00000   0.00000   1.88994
   A67        1.88994   0.00000   0.00000   0.00000   0.00000   1.88994
   A68        1.93001   0.00000   0.00000   0.00000   0.00000   1.93001
   A69        1.90863   0.00000   0.00000   0.00000   0.00000   1.90863
   A70        1.92162   0.00000   0.00000   0.00000   0.00000   1.92162
   A71        1.92162   0.00000   0.00000   0.00000   0.00000   1.92162
   A72        1.88966   0.00000   0.00000   0.00000   0.00000   1.88966
   A73        1.88966   0.00000   0.00000   0.00000   0.00000   1.88966
   A74        1.93195   0.00000   0.00000   0.00000   0.00000   1.93195
    D1        1.56036   0.00000   0.00000   0.00000   0.00000   1.56036
    D2       -2.64865   0.00000   0.00000   0.00000   0.00000  -2.64865
    D3       -0.51381   0.00000   0.00000   0.00000   0.00000  -0.51381
    D4       -1.56036   0.00000   0.00000   0.00000   0.00000  -1.56036
    D5        0.51381   0.00000   0.00000   0.00000   0.00000   0.51381
    D6        2.64865   0.00000   0.00000   0.00000   0.00000   2.64865
    D7       -3.10255   0.00000   0.00000   0.00000   0.00000  -3.10255
    D8        0.01629   0.00000   0.00000   0.00000   0.00000   0.01630
    D9        3.10255   0.00000   0.00000   0.00000   0.00000   3.10255
   D10       -0.01629   0.00000   0.00000   0.00000   0.00000  -0.01630
   D11        1.56016   0.00000   0.00000   0.00000   0.00000   1.56016
   D12       -2.64802   0.00000   0.00000   0.00000   0.00000  -2.64802
   D13       -0.51485   0.00000   0.00000   0.00000   0.00000  -0.51485
   D14       -1.56016   0.00000   0.00000   0.00000   0.00000  -1.56016
   D15        0.51485   0.00000   0.00000   0.00000   0.00000   0.51485
   D16        2.64802   0.00000   0.00000   0.00000   0.00000   2.64802
   D17       -3.10195   0.00000   0.00000   0.00000   0.00000  -3.10195
   D18        0.01651   0.00000   0.00000   0.00000   0.00000   0.01651
   D19        3.10195   0.00000   0.00000   0.00000   0.00000   3.10195
   D20       -0.01651   0.00000   0.00000   0.00000   0.00000  -0.01651
   D21       -1.55040   0.00000   0.00000   0.00000   0.00000  -1.55041
   D22        1.53544   0.00000   0.00000   0.00000   0.00000   1.53543
   D23        3.13411   0.00000   0.00000   0.00000   0.00000   3.13411
   D24       -0.00748   0.00000   0.00000   0.00000   0.00000  -0.00748
   D25       -0.01474   0.00000   0.00000   0.00000   0.00000  -0.01474
   D26        0.00748   0.00000   0.00000   0.00000   0.00000   0.00748
   D27        1.55040   0.00000   0.00000   0.00000   0.00000   1.55041
   D28       -1.53544   0.00000   0.00000   0.00000   0.00000  -1.53543
   D29       -3.13411   0.00000   0.00000   0.00000   0.00000  -3.13411
   D30        0.01474   0.00000   0.00000   0.00000   0.00000   0.01474
   D31        1.53560   0.00000   0.00000   0.00000   0.00000   1.53560
   D32        3.13400   0.00000   0.00000   0.00000   0.00000   3.13400
   D33       -0.00760   0.00000   0.00000   0.00000   0.00000  -0.00759
   D34       -1.55078   0.00000   0.00000   0.00000   0.00000  -1.55078
   D35       -1.55078   0.00000   0.00000   0.00000   0.00000  -1.55078
   D36        3.13400   0.00000   0.00000   0.00000   0.00000   3.13400
   D37       -0.00760   0.00000   0.00000   0.00000   0.00000  -0.00759
   D38        1.53560   0.00000   0.00000   0.00000   0.00000   1.53560
   D39        0.01651   0.00000   0.00000   0.00000   0.00000   0.01651
   D40       -3.10195   0.00000   0.00000   0.00000   0.00000  -3.10195
   D41        1.56501   0.00000   0.00000   0.00000   0.00000   1.56501
   D42       -0.00564   0.00000   0.00000  -0.00001  -0.00001  -0.00564
   D43        3.13596   0.00000   0.00000  -0.00001  -0.00001   3.13595
   D44       -1.57659   0.00000   0.00000   0.00000   0.00000  -1.57659
   D45       -1.57659   0.00000   0.00000   0.00000   0.00000  -1.57659
   D46        3.13596   0.00000   0.00000  -0.00001  -0.00001   3.13595
   D47       -0.00564   0.00000   0.00000  -0.00001  -0.00001  -0.00564
   D48        1.56501   0.00000   0.00000   0.00000   0.00000   1.56501
   D49        1.56501   0.00000   0.00000   0.00000   0.00000   1.56501
   D50       -0.00564   0.00000   0.00000  -0.00001  -0.00001  -0.00564
   D51       -1.57659   0.00000   0.00000   0.00000   0.00000  -1.57659
   D52        3.13596   0.00000   0.00000  -0.00001  -0.00001   3.13595
   D53       -1.57659   0.00000   0.00000   0.00000   0.00000  -1.57659
   D54        3.13596   0.00000   0.00000  -0.00001  -0.00001   3.13595
   D55        1.56501   0.00000   0.00000   0.00000   0.00000   1.56501
   D56       -0.00564   0.00000   0.00000  -0.00001  -0.00001  -0.00564
   D57        3.14159   0.00000   0.00000   0.00000   0.00000   3.14159
   D58        0.00000   0.00000   0.00000   0.00000   0.00000   0.00000
   D59        0.00000   0.00000   0.00000   0.00000   0.00000   0.00000
   D60        3.14159   0.00000   0.00000   0.00000   0.00000   3.14159
   D61        0.00000   0.00000   0.00000   0.00000   0.00000   0.00000
   D62       -1.57064   0.00000   0.00000  -0.00001  -0.00001  -1.57065
   D63        3.14159   0.00000   0.00000   0.00000   0.00000   3.14159
   D64        1.57095   0.00000   0.00000  -0.00001  -0.00001   1.57094
   D65        1.57064   0.00000   0.00000   0.00001   0.00001   1.57065
   D66        0.00000   0.00000   0.00000   0.00000   0.00000   0.00000
   D67       -1.57095   0.00000   0.00000   0.00001   0.00001  -1.57094
   D68        3.14159   0.00000   0.00000   0.00000   0.00000   3.14159
   D69       -1.57095   0.00000   0.00000   0.00001   0.00001  -1.57094
   D70        3.14159   0.00000   0.00000   0.00000   0.00000  -3.14159
   D71        1.57064   0.00000   0.00000   0.00001   0.00001   1.57065
   D72        0.00000   0.00000   0.00000   0.00000   0.00000   0.00000
   D73        3.14159   0.00000   0.00000   0.00000   0.00000   3.14159
   D74        1.57095   0.00000   0.00000  -0.00001  -0.00001   1.57094
   D75        0.00000   0.00000   0.00000   0.00000   0.00000   0.00000
   D76       -1.57064   0.00000   0.00000  -0.00001  -0.00001  -1.57065
   D77        1.53544   0.00000   0.00000   0.00000   0.00000   1.53543
   D78       -1.55040   0.00000   0.00000   0.00000   0.00000  -1.55041
   D79        3.13411   0.00000   0.00000   0.00000   0.00000   3.13411
   D80       -0.00748   0.00000   0.00000   0.00000   0.00000  -0.00748
   D81        1.57659   0.00000   0.00000   0.00000   0.00000   1.57659
   D82       -1.56501   0.00000   0.00000   0.00000   0.00000  -1.56501
   D83       -3.13596   0.00000   0.00000   0.00001   0.00001  -3.13595
   D84        0.00564   0.00000   0.00000   0.00001   0.00001   0.00564
   D85        0.00564   0.00000   0.00000   0.00001   0.00001   0.00564
   D86       -3.13596   0.00000   0.00000   0.00001   0.00001  -3.13595
   D87       -1.56501   0.00000   0.00000   0.00000   0.00000  -1.56501
   D88        1.57659   0.00000   0.00000   0.00000   0.00000   1.57659
   D89       -1.53560   0.00000   0.00000   0.00000   0.00000  -1.53560
   D90        0.00760   0.00000   0.00000   0.00000   0.00000   0.00759
   D91        1.55078   0.00000   0.00000   0.00000   0.00000   1.55078
   D92       -3.13400   0.00000   0.00000   0.00000   0.00000  -3.13400
   D93        0.01497   0.00000   0.00000   0.00000   0.00000   0.01496
   D94        0.00748   0.00000   0.00000   0.00000   0.00000   0.00748
   D95       -1.53544   0.00000   0.00000   0.00000   0.00000  -1.53543
   D96        1.55040   0.00000   0.00000   0.00000   0.00000   1.55041
   D97       -3.13411   0.00000   0.00000   0.00000   0.00000  -3.13411
   D98        1.55078   0.00000   0.00000   0.00000   0.00000   1.55078
   D99        0.00760   0.00000   0.00000   0.00000   0.00000   0.00759
   D100      -1.53560   0.00000   0.00000   0.00000   0.00000  -1.53560
   D101      -3.13400   0.00000   0.00000   0.00000   0.00000  -3.13400
   D102       1.57659   0.00000   0.00000   0.00000   0.00000   1.57659
   D103      -1.56501   0.00000   0.00000   0.00000   0.00000  -1.56501
   D104      -3.13596   0.00000   0.00000   0.00001   0.00001  -3.13595
   D105       0.00564   0.00000   0.00000   0.00001   0.00001   0.00564
   D106      -1.56501   0.00000   0.00000   0.00000   0.00000  -1.56501
   D107       1.57659   0.00000   0.00000   0.00000   0.00000   1.57659
   D108       0.00564   0.00000   0.00000   0.00001   0.00001   0.00564
   D109      -3.13596   0.00000   0.00000   0.00001   0.00001  -3.13595
   D110       0.01629   0.00000   0.00000   0.00000   0.00000   0.01630
   D111      -3.10255   0.00000   0.00000   0.00000   0.00000  -3.10255
   D112      -0.01651   0.00000   0.00000   0.00000   0.00000  -0.01651
   D113       3.10195   0.00000   0.00000   0.00000   0.00000   3.10195
   D114       1.56016   0.00000   0.00000   0.00000   0.00000   1.56016
   D115      -0.51485   0.00000   0.00000   0.00000   0.00000  -0.51485
   D116      -2.64802   0.00000   0.00000   0.00000   0.00000  -2.64802
   D117      -1.56016   0.00000   0.00000   0.00000   0.00000  -1.56016
   D118       2.64802   0.00000   0.00000   0.00000   0.00000   2.64802
   D119       0.51485   0.00000   0.00000   0.00000   0.00000   0.51485
   D120      -0.01629   0.00000   0.00000   0.00000   0.00000  -0.01630
   D121       3.10255   0.00000   0.00000   0.00000   0.00000   3.10255
   D122       1.56036   0.00000   0.00000   0.00000   0.00000   1.56036
   D123      -0.51381   0.00000   0.00000   0.00000   0.00000  -0.51381
   D124      -2.64865   0.00000   0.00000   0.00000   0.00000  -2.64865
   D125      -1.56036   0.00000   0.00000   0.00000   0.00000  -1.56036
   D126       2.64865   0.00000   0.00000   0.00000   0.00000   2.64865
   D127       0.51381   0.00000   0.00000   0.00000   0.00000   0.51381
         Item               Value     Threshold  Converged?
 Maximum Force            0.000000     0.000002     YES
 RMS     Force            0.000000     0.000001     YES
 Maximum Displacement     0.000032     0.000006     NO 
 RMS     Displacement     0.000008     0.000004     NO 
 Predicted change in Energy=-3.382979D-11
 GradGradGradGradGradGradGradGradGradGradGradGradGradGradGradGradGradGrad

                          Input orientation:                          
 ---------------------------------------------------------------------
 Center     Atomic      Atomic             Coordinates (Angstroms)
 Number     Number       Type             X           Y           Z
 ---------------------------------------------------------------------
      1          6           0       -0.008617    2.679440    0.000000
      2          6           0       -0.060997    4.197799    0.000000
      3          6           0        2.680261    0.009139    0.000000
      4          6           0        4.198269    0.062506    0.000000
      5          1           0       -1.116730    4.528254    0.000000
      6          1           0        0.424712    4.593389    0.906235
      7          1           0        0.424712    4.593389   -0.906235
      8          1           0        4.528278    1.118371    0.000000
      9          1           0        4.594799   -0.423565    0.905619
     10          1           0        4.594799   -0.423565   -0.905619
     11          8           0       -0.000006    2.076379   -1.167756
     12          8           0       -0.000006    2.076379    1.167756
     13          8           0        2.075820    0.000314   -1.167207
     14          8           0       -2.075820   -0.000314   -1.167207
     15          8           0        0.000000    0.000000   -3.500195
     16         45           0        0.000000    0.000000   -1.225110
     17         45           0        0.000000    0.000000    1.225110
     18          8           0        0.000006   -2.076379   -1.167756
     19          8           0        2.075820    0.000314    1.167207
     20          6           0       -2.680261   -0.009139    0.000000
     21          8           0        0.000006   -2.076379    1.167756
     22          8           0       -2.075820   -0.000314    1.167207
     23          8           0        0.000000    0.000000    3.500195
     24          6           0        0.008617   -2.679440    0.000000
     25          6           0       -4.198269   -0.062506    0.000000
     26          6           0        0.060997   -4.197799    0.000000
     27          1           0        1.116730   -4.528254    0.000000
     28          1           0       -0.424712   -4.593389   -0.906235
     29          1           0       -0.424712   -4.593389    0.906235
     30          1           0       -4.528278   -1.118371    0.000000
     31          1           0       -4.594799    0.423565   -0.905619
     32          1           0       -4.594799    0.423565    0.905619
     33          1           0       -0.821551   -0.004758    4.037344
     34          1           0        0.821551    0.004758    4.037344
     35          1           0        0.821551    0.004758   -4.037344
     36          1           0       -0.821551   -0.004758   -4.037344
 ---------------------------------------------------------------------
                    Distance matrix (angstroms):
                    1          2          3          4          5
     1  C    0.000000
     2  C    1.519262   0.000000
     3  C    3.789535   5.005933   0.000000
     4  C    4.954415   5.936496   1.518945   0.000000
     5  H    2.155465   1.106243   5.902503   6.942054   0.000000
     6  H    2.161535   1.101665   5.188845   5.965726   1.789287
     7  H    2.161535   1.101665   5.188845   5.965726   1.789287
     8  H    4.797953   5.526691   2.155357   1.106235   6.594954
     9  H    5.624964   6.622204   2.161674   1.101657   7.613293
    10  H    5.624964   6.622204   2.161674   1.101657   7.613293
    11  O    1.314310   2.422353   3.580638   4.800505   2.936395
    12  O    1.314310   2.422353   3.580638   4.800505   2.936395
    13  O    3.589563   4.852550   1.314458   2.423021   5.661889
    14  O    3.580054   4.800629   4.897221   6.382046   4.773903
    15  O    4.408043   5.465949   4.408543   5.466327   5.831255
    16  Rh   2.946246   4.373343   2.946995   4.373815   4.822143
    17  Rh   2.946246   4.373343   2.946995   4.373815   4.822143
    18  O    4.897095   6.382216   3.591212   4.854265   6.799407
    19  O    3.589563   4.852550   1.314458   2.423021   5.661889
    20  C    3.790269   4.955691   5.360554   6.878903   4.799225
    21  O    4.897095   6.382216   3.591212   4.854265   6.799407
    22  O    3.580054   4.800629   4.897221   6.382046   4.773903
    23  O    4.408043   5.465949   4.408543   5.466327   5.831255
    24  C    5.358908   6.877591   3.790269   5.007140   7.295016
    25  C    5.007140   5.938621   6.878903   8.397468   5.529101
    26  C    6.877591   8.396484   4.955691   5.938621   8.805171
    27  H    7.295016   8.805171   4.799225   5.529101   9.327844
    28  H    7.340875   8.845255   5.625423   6.623486   9.192634
    29  H    7.340875   8.845255   5.625423   6.623486   9.192634
    30  H    5.903449   6.943937   7.296185   8.806082   6.597199
    31  H    5.190586   5.968278   7.342915   8.846951   5.455784
    32  H    5.190586   5.968278   7.342915   8.846951   5.455784
    33  H    4.915885   5.877080   5.344439   6.442302   6.077456
    34  H    4.913577   5.887327   4.444656   5.263620   6.365461
    35  H    4.913577   5.887327   4.444656   5.263620   6.365461
    36  H    4.915885   5.877080   5.344439   6.442302   6.077456
                    6          7          8          9         10
     6  H    0.000000
     7  H    1.812469   0.000000
     8  H    5.453097   5.453097   0.000000
     9  H    6.523761   6.770692   1.789452   0.000000
    10  H    6.770692   6.523761   1.789452   1.811237   0.000000
    11  O    3.288945   2.565954   4.773551   5.626796   5.237430
    12  O    2.565954   3.288945   4.773551   5.237430   5.626796
    13  O    5.302986   4.887802   2.937171   3.289611   2.567754
    14  O    5.626182   5.236685   6.799113   6.998065   6.689150
    15  O    6.379360   5.292281   5.831588   6.379873   5.293715
    16  Rh   5.081558   4.623990   4.822546   5.082479   4.625328
    17  Rh   4.623990   5.081558   4.822546   4.625328   5.082479
    18  O    6.997687   6.688391   5.663509   5.304979   4.890055
    19  O    4.887802   5.302986   2.937171   2.567754   3.289611
    20  C    5.625423   5.625423   7.296185   7.342915   7.342915
    21  O    6.688391   6.997687   5.663509   4.890055   5.304979
    22  O    5.236685   5.626182   6.799113   6.689150   6.998065
    23  O    5.292281   6.379360   5.831588   5.293715   6.379873
    24  C    7.340875   7.340875   5.903449   5.190586   5.190586
    25  C    6.623486   6.623486   8.806082   8.846951   8.846951
    26  C    8.845255   8.845255   6.943937   5.968278   5.968278
    27  H    9.192634   9.192634   6.597199   5.455784   5.455784
    28  H    9.402311   9.225964   7.614301   6.772424   6.525559
    29  H    9.225964   9.402311   7.614301   6.525559   6.772424
    30  H    7.614301   7.614301   9.328677   9.194207   9.194207
    31  H    6.772424   6.525559   9.194207   9.404623   9.228562
    32  H    6.525559   6.772424   9.194207   9.228562   9.404623
    33  H    5.700875   6.865500   6.795751   6.270562   7.344734
    34  H    5.569278   6.756625   5.592862   4.922252   6.233277
    35  H    6.756625   5.569278   5.592862   6.233277   4.922252
    36  H    6.865500   5.700875   6.795751   7.344734   6.270562
                   11         12         13         14         15
    11  O    0.000000
    12  O    2.335511   0.000000
    13  O    2.935830   3.751153   0.000000
    14  O    2.936266   3.751494   4.151640   0.000000
    15  O    3.122759   5.108925   3.122797   3.122797   0.000000
    16  Rh   2.077171   3.168147   2.076627   2.076627   2.275085
    17  Rh   3.168147   2.077171   3.167367   3.167367   4.725305
    18  O    4.152758   4.764453   2.936266   2.935830   3.122759
    19  O    3.751153   2.935830   2.334415   4.762941   5.108197
    20  C    3.591212   3.591212   4.897221   1.314458   4.408543
    21  O    4.764453   4.152758   3.751494   3.751153   5.108925
    22  O    3.751494   2.936266   4.762941   2.334415   5.108197
    23  O    5.108925   3.122759   5.108197   5.108197   7.000390
    24  C    4.897095   4.897095   3.580054   3.589563   4.408043
    25  C    4.854265   4.854265   6.382046   2.423021   5.466327
    26  C    6.382216   6.382216   4.800629   4.852550   5.465949
    27  H    6.799407   6.799407   4.773903   5.661889   5.831255
    28  H    6.688391   6.997687   5.236685   4.887802   5.292281
    29  H    6.997687   6.688391   5.626182   5.302986   6.379360
    30  H    5.663509   5.663509   6.799113   2.937171   5.831588
    31  H    4.890055   5.304979   6.689150   2.567754   5.293715
    32  H    5.304979   4.890055   6.998065   3.289611   6.379873
    33  H    5.665609   3.638764   5.956688   5.353556   7.582180
    34  H    5.662122   3.633332   5.353556   5.956688   7.582180
    35  H    3.633332   5.662122   3.132234   4.078292   0.981579
    36  H    3.638764   5.665609   4.078292   3.132234   0.981579
                   16         17         18         19         20
    16  Rh   0.000000
    17  Rh   2.450220   0.000000
    18  O    2.077171   3.168147   0.000000
    19  O    3.167367   2.076627   3.751494   0.000000
    20  C    2.946995   2.946995   3.580638   4.897221   0.000000
    21  O    3.168147   2.077171   2.335511   2.936266   3.580638
    22  O    3.167367   2.076627   3.751153   4.151640   1.314458
    23  O    4.725305   2.275085   5.108925   3.122797   4.408543
    24  C    2.946246   2.946246   1.314310   3.580054   3.789535
    25  C    4.373815   4.373815   4.800505   6.382046   1.518945
    26  C    4.373343   4.373343   2.422353   4.800629   5.005933
    27  H    4.822143   4.822143   2.936395   4.773903   5.902503
    28  H    4.623990   5.081558   2.565954   5.626182   5.188845
    29  H    5.081558   4.623990   3.288945   5.236685   5.188845
    30  H    4.822546   4.822546   4.773551   6.799113   2.155357
    31  H    4.625328   5.082479   5.237430   6.998065   2.161674
    32  H    5.082479   4.625328   5.626796   6.689150   2.161674
    33  H    5.326198   2.929782   5.662122   4.078292   4.444656
    34  H    5.326198   2.929782   5.665609   3.132234   5.344439
    35  H    2.929782   5.326198   3.638764   5.353556   5.344439
    36  H    2.929782   5.326198   3.633332   5.956688   4.444656
                   21         22         23         24         25
    21  O    0.000000
    22  O    2.935830   0.000000
    23  O    3.122759   3.122797   0.000000
    24  C    1.314310   3.589563   4.408043   0.000000
    25  C    4.800505   2.423021   5.466327   4.954415   0.000000
    26  C    2.422353   4.852550   5.465949   1.519262   5.936496
    27  H    2.936395   5.661889   5.831255   2.155465   6.942054
    28  H    3.288945   5.302986   6.379360   2.161535   5.965726
    29  H    2.565954   4.887802   5.292281   2.161535   5.965726
    30  H    4.773551   2.937171   5.831588   4.797953   1.106235
    31  H    5.626796   3.289611   6.379873   5.624964   1.101657
    32  H    5.237430   2.567754   5.293715   5.624964   1.101657
    33  H    3.633332   3.132234   0.981579   4.913577   5.263620
    34  H    3.638764   4.078292   0.981579   4.915885   6.442302
    35  H    5.665609   5.956688   7.582180   4.915885   6.442302
    36  H    5.662122   5.353556   7.582180   4.913577   5.263620
                   26         27         28         29         30
    26  C    0.000000
    27  H    1.106243   0.000000
    28  H    1.101665   1.789287   0.000000
    29  H    1.101665   1.789287   1.812469   0.000000
    30  H    5.526691   6.594954   5.453097   5.453097   0.000000
    31  H    6.622204   7.613293   6.523761   6.770692   1.789452
    32  H    6.622204   7.613293   6.770692   6.523761   1.789452
    33  H    5.887327   6.365461   6.756625   5.569278   5.592862
    34  H    5.877080   6.077456   6.865500   5.700875   6.795751
    35  H    5.877080   6.077456   5.700875   6.865500   6.795751
    36  H    5.887327   6.365461   5.569278   6.756625   5.592862
                   31         32         33         34         35
    31  H    0.000000
    32  H    1.811237   0.000000
    33  H    6.233277   4.922252   0.000000
    34  H    7.344734   6.270562   1.643129   0.000000
    35  H    6.270562   7.344734   8.240173   8.074687   0.000000
    36  H    4.922252   6.233277   8.074687   8.240173   1.643129
                   36
    36  H    0.000000
 Stoichiometry    C8H16O10Rh2
 Framework group  C2H[C2(ORh.RhO),SGH(C8H4),X(H12O8)]
 Deg. of freedom    28
 Full point group                 C2H     NOp   4
 Largest Abelian subgroup         C2H     NOp   4
 Largest concise Abelian subgroup C2H     NOp   4
                         Standard orientation:                         
 ---------------------------------------------------------------------
 Center     Atomic      Atomic             Coordinates (Angstroms)
 Number     Number       Type             X           Y           Z
 ---------------------------------------------------------------------
      1          6           0       -0.008609    2.679440    0.000000
      2          6           0       -0.060985    4.197799    0.000000
      3          6           0        2.680261    0.009131    0.000000
      4          6           0        4.198269    0.062494    0.000000
      5          1           0       -1.116717    4.528257    0.000000
      6          1           0        0.424725    4.593388    0.906235
      7          1           0        0.424725    4.593388   -0.906235
      8          1           0        4.528281    1.118358    0.000000
      9          1           0        4.594798   -0.423578    0.905619
     10          1           0        4.594798   -0.423578   -0.905619
     11          8           0        0.000000    2.076379   -1.167756
     12          8           0        0.000000    2.076379    1.167756
     13          8           0        2.075820    0.000308   -1.167207
     14          8           0       -2.075820   -0.000308   -1.167207
     15          8           0        0.000000    0.000000   -3.500195
     16         45           0        0.000000    0.000000   -1.225110
     17         45           0        0.000000    0.000000    1.225110
     18          8           0        0.000000   -2.076379   -1.167756
     19          8           0        2.075820    0.000308    1.167207
     20          6           0       -2.680261   -0.009131    0.000000
     21          8           0        0.000000   -2.076379    1.167756
     22          8           0       -2.075820   -0.000308    1.167207
     23          8           0        0.000000    0.000000    3.500195
     24          6           0        0.008609   -2.679440    0.000000
     25          6           0       -4.198269   -0.062494    0.000000
     26          6           0        0.060985   -4.197799    0.000000
     27          1           0        1.116717   -4.528257    0.000000
     28          1           0       -0.424725   -4.593388   -0.906235
     29          1           0       -0.424725   -4.593388    0.906235
     30          1           0       -4.528281   -1.118358    0.000000
     31          1           0       -4.594798    0.423578   -0.905619
     32          1           0       -4.594798    0.423578    0.905619
     33          1           0       -0.821551   -0.004756    4.037344
     34          1           0        0.821551    0.004756    4.037344
     35          1           0        0.821551    0.004756   -4.037344
     36          1           0       -0.821551   -0.004756   -4.037344
 ---------------------------------------------------------------------
 Rotational constants (GHZ):      0.2593925      0.2590108      0.2521354
 Standard basis: LANL2DZ (5D, 7F)
 There are    73 symmetry adapted basis functions of AG  symmetry.
 There are    46 symmetry adapted basis functions of BG  symmetry.
 There are    49 symmetry adapted basis functions of AU  symmetry.
 There are    70 symmetry adapted basis functions of BU  symmetry.
 Integral buffers will be    131072 words long.
 Raffenetti 2 integral format.
 Two-electron integral symmetry is turned on.
   238 basis functions,   612 primitive gaussians,   242 cartesian basis functions
    89 alpha electrons       89 beta electrons
       nuclear repulsion energy      2357.7433839425 Hartrees.
 NAtoms=   36 NActive=   36 NUniq=   13 SFac= 3.00D+00 NAtFMM=   80 NAOKFM=F Big=F
 One-electron integrals computed using PRISM.
   4 Symmetry operations used in ECPInt.
 ECPInt:  NShTT=    9591 NPrTT=   68474 LenC2=    9087 LenP2D=   38378.
 LDataN:  DoStor=T MaxTD1= 5 Len=  102
 NBasis=   238 RedAO= T  NBF=    73    46    49    70
 NBsUse=   238 1.00D-06 NBFU=    73    46    49    70
 Defaulting to unpruned grid for atomic number  45.
 Initial guess read from the read-write file.
 B after Tr=     0.000000    0.000000    0.000000
         Rot=    1.000000    0.000000    0.000000    0.000000 Ang=   0.00 deg.
 Initial guess orbital symmetries:
       Occupied  (AU) (AG) (AG) (AU) (BG) (BU) (AG) (AU) (BG) (BU)
                 (AG) (BU) (AG) (BU) (BU) (AG) (BU) (AG) (AG) (AU)
                 (BU) (BU) (BG) (BG) (AG) (AU) (AG) (BU) (AG) (BU)
                 (AU) (AG) (AU) (BG) (AU) (BG) (AG) (BU) (AG) (BU)
                 (BU) (BG) (AG) (AG) (BU) (BU) (AU) (AU) (BG) (BG)
                 (AG) (BU) (BU) (AG) (BU) (BU) (AG) (AG) (AG) (AU)
                 (AU) (BG) (AU) (BG) (AG) (BU) (BU) (AG) (AG) (AU)
                 (AG) (BU) (BG) (BU) (AU) (BU) (BG) (AU) (BG) (BG)
                 (BG) (AU) (AG) (BU) (BU) (AG) (AU) (BG) (BG)
       Virtual   (AU) (AU) (AG) (BU) (BU) (AG) (AG) (AU) (AG) (BU)
                 (BU) (BG) (AG) (BG) (BU) (AG) (AU) (AG) (BG) (BU)
                 (BU) (AG) (AG) (AU) (AG) (BU) (BU) (BG) (BG) (AU)
                 (AG) (BU) (AG) (BU) (AU) (AG) (BU) (BU) (AG) (AG)
                 (AU) (BG) (AG) (AU) (BG) (AG) (BU) (BU) (AG) (BU)
                 (BU) (BG) (AU) (BG) (AU) (BU) (BG) (BU) (BG) (AG)
                 (AU) (BU) (AG) (BU) (AG) (BG) (BG) (AU) (BU) (BU)
                 (AG) (AG) (AU) (AG) (AU) (AG) (AU) (BU) (BG) (BU)
                 (AG) (BG) (BU) (AU) (AG) (AU) (BU) (BU) (BG) (AG)
                 (AU) (BU) (BG) (AG) (AU) (BG) (AG) (BU) (BG) (BU)
                 (BU) (AG) (AU) (BU) (AG) (BG) (BG) (AU) (AG) (BU)
                 (AG) (BG) (AG) (AG) (AG) (BU) (BU) (AG) (AU) (AU)
                 (BU) (BG) (BU) (AG) (BG) (AG) (AU) (BG) (BU) (AU)
                 (AU) (BU) (AG) (BG) (BU) (BU) (AG) (AG) (AU) (BU)
                 (BU) (AU) (BG) (BG) (AG) (AU) (AG) (AU) (AG)
 Requested convergence on RMS density matrix=1.00D-08 within 128 cycles.
 Requested convergence on MAX density matrix=1.00D-06.
 Requested convergence on             energy=1.00D-06.
 No special actions if energy rises.
 Defaulting to unpruned grid for atomic number  45.
 Defaulting to unpruned grid for atomic number  45.
 Defaulting to unpruned grid for atomic number  45.
 Defaulting to unpruned grid for atomic number  45.
 Defaulting to unpruned grid for atomic number  45.
 Defaulting to unpruned grid for atomic number  45.
 SCF Done:  E(RB-P86) =  -1286.10632675     A.U. after    3 cycles
             Convg  =    0.5740D-08             -V/T =  2.1306
   4 Symmetry operations used in ECPInt.
 ECPInt:  NShTT=    9591 NPrTT=   68474 LenC2=    9087 LenP2D=   38378.
 LDataN:  DoStor=T MaxTD1= 6 Len=  172
 Calling FoFJK, ICntrl=      2527 FMM=F ISym2X=1 I1Cent= 0 IOpClX= 0 NMat=1 NMatS=1 NMatT=0.
 Defaulting to unpruned grid for atomic number  45.
 Defaulting to unpruned grid for atomic number  45.
 Defaulting to unpruned grid for atomic number  45.
 Defaulting to unpruned grid for atomic number  45.
 Defaulting to unpruned grid for atomic number  45.
 Defaulting to unpruned grid for atomic number  45.
 ***** Axes restored to original set *****
 -------------------------------------------------------------------
 Center     Atomic                   Forces (Hartrees/Bohr)
 Number     Number              X              Y              Z
 -------------------------------------------------------------------
      1        6           0.000000199   -0.000000029    0.000000000
      2        6          -0.000000025    0.000000019    0.000000000
      3        6           0.000000067   -0.000000204    0.000000000
      4        6           0.000000025   -0.000000059    0.000000000
      5        1           0.000000049    0.000000038    0.000000000
      6        1           0.000000049   -0.000000017   -0.000000002
      7        1           0.000000049   -0.000000017    0.000000002
      8        1           0.000000015   -0.000000039    0.000000000
      9        1          -0.000000030   -0.000000063   -0.000000003
     10        1          -0.000000030   -0.000000063    0.000000003
     11        8          -0.000000453   -0.000000005    0.000000040
     12        8          -0.000000453   -0.000000005   -0.000000040
     13        8          -0.000000030   -0.000000409   -0.000000063
     14        8           0.000000030    0.000000409   -0.000000063
     15        8           0.000000000    0.000000000    0.000000062
     16       45           0.000000000    0.000000000    0.000000026
     17       45           0.000000000    0.000000000   -0.000000026
     18        8           0.000000453    0.000000005    0.000000040
     19        8          -0.000000030   -0.000000409    0.000000063
     20        6          -0.000000067    0.000000204    0.000000000
     21        8           0.000000453    0.000000005   -0.000000040
     22        8           0.000000030    0.000000409    0.000000063
     23        8           0.000000000    0.000000000   -0.000000062
     24        6          -0.000000199    0.000000029    0.000000000
     25        6          -0.000000025    0.000000059    0.000000000
     26        6           0.000000025   -0.000000019    0.000000000
     27        1          -0.000000049   -0.000000038    0.000000000
     28        1          -0.000000049    0.000000017    0.000000002
     29        1          -0.000000049    0.000000017   -0.000000002
     30        1          -0.000000015    0.000000039    0.000000000
     31        1           0.000000030    0.000000063    0.000000003
     32        1           0.000000030    0.000000063   -0.000000003
     33        1           0.000000001   -0.000000010    0.000000038
     34        1          -0.000000001    0.000000010    0.000000038
     35        1          -0.000000001    0.000000010   -0.000000038
     36        1           0.000000001   -0.000000010   -0.000000038
 -------------------------------------------------------------------
 Cartesian Forces:  Max     0.000000453 RMS     0.000000127

 GradGradGradGradGradGradGradGradGradGradGradGradGradGradGradGradGradGrad
 Berny optimization.
 Using GEDIIS/GDIIS optimizer.
 Internal  Forces:  Max     0.000000317 RMS     0.000000102
 Search for a local minimum.
 Step number   2 out of a maximum of  216
 All quantities printed in internal units (Hartrees-Bohrs-Radians)
 Mixed Optimization -- En-DIIS/RFO-DIIS
 Swaping is turned off.
 Update second derivatives using D2CorX and points    1    2
 DE= -1.74D-10 DEPred=-3.38D-11 R= 5.15D+00
 Trust test= 5.15D+00 RLast= 3.30D-05 DXMaxT set to 3.00D-01
     Eigenvalues ---    0.00226   0.00230   0.00230   0.00230   0.00397
     Eigenvalues ---    0.00511   0.00511   0.00515   0.00515   0.01172
     Eigenvalues ---    0.01262   0.01264   0.01270   0.01734   0.01738
     Eigenvalues ---    0.01857   0.02240   0.02251   0.02254   0.02634
     Eigenvalues ---    0.03189   0.05176   0.05176   0.07206   0.07207
     Eigenvalues ---    0.07207   0.07218   0.07421   0.07421   0.07426
     Eigenvalues ---    0.07426   0.09377   0.09378   0.10017   0.10020
     Eigenvalues ---    0.11449   0.13186   0.13652   0.13672   0.14817
     Eigenvalues ---    0.14817   0.14837   0.14838   0.14897   0.15297
     Eigenvalues ---    0.15482   0.15987   0.16000   0.16000   0.16000
     Eigenvalues ---    0.16000   0.16000   0.16000   0.16000   0.16000
     Eigenvalues ---    0.16000   0.16000   0.16000   0.16000   0.16000
     Eigenvalues ---    0.16000   0.16214   0.17475   0.17489   0.18567
     Eigenvalues ---    0.18572   0.24156   0.24303   0.24307   0.24501
     Eigenvalues ---    0.24997   0.24997   0.24997   0.24997   0.30438
     Eigenvalues ---    0.30457   0.30468   0.30563   0.33000   0.33001
     Eigenvalues ---    0.33002   0.33221   0.33499   0.33499   0.33499
     Eigenvalues ---    0.33499   0.33500   0.33500   0.33500   0.35875
     Eigenvalues ---    0.51079   0.51079   0.51079   0.51082   0.56741
     Eigenvalues ---    0.56921   0.56961   0.58226   0.62151   0.62194
     Eigenvalues ---    0.62249   0.622821000.000001000.000001000.00000
     Eigenvalues --- 1000.000001000.000001000.000001000.000001000.00000
     Eigenvalues --- 1000.000001000.000001000.000001000.000001000.00000
     Eigenvalues --- 1000.000001000.000001000.000001000.000001000.00000
     Eigenvalues --- 1000.000001000.000001000.000001000.000001000.00000
     Eigenvalues --- 1000.000001000.000001000.000001000.000001000.00000
     Eigenvalues --- 1000.000001000.000001000.000001000.000001000.00000
     Eigenvalues --- 1000.000001000.000001000.000001000.000001000.00000
     Eigenvalues --- 1000.000001000.000001000.000001000.000001000.00000
     Eigenvalues --- 1000.000001000.000001000.000001000.000001000.00000
     Eigenvalues --- 1000.000001000.000001000.000001000.000001000.00000
     Eigenvalues --- 1000.000001000.000001000.000001000.000001000.00000
     Eigenvalues --- 1000.000001000.000001000.000001000.000001000.00000
     Eigenvalues --- 1000.000001000.000001000.000001000.000001000.00000
     Eigenvalues --- 1000.000001000.000001000.000001000.000001000.00000
     Eigenvalues --- 1000.000001000.000001000.000001000.000001000.00000
     Eigenvalues --- 1000.000001000.000001000.000001000.000001000.00000
     Eigenvalues --- 1000.000001000.000001000.000001000.000001000.00000
     Eigenvalues --- 1000.000001000.000001000.000001000.000001000.00000
     Eigenvalues --- 1000.000001000.000001000.000001000.000001000.00000
     Eigenvalues --- 1000.000001000.000001000.000001000.000001000.00000
     Eigenvalues --- 1000.000001000.000001000.000001000.000001000.00000
     Eigenvalues --- 1000.000001000.000001000.000001000.000001000.00000
     Eigenvalues --- 1000.000001000.000001000.000001000.000001000.00000
     Eigenvalues --- 1000.000001000.000001000.000001000.000001000.00000
     Eigenvalues --- 1000.000001000.000001000.000001000.000001000.00000
     Eigenvalues --- 1000.000001000.000001000.000001000.000001000.00000
     Eigenvalues --- 1000.000001000.000001000.000001000.000001000.00000
 En-DIIS/RFO-DIIS IScMMF=        0 using points:     2    1
 RFO step:  Lambda= 0.00000000D+00.
 DIIS coeffs:      2.53995     -1.53995
 Iteration  1 RMS(Cart)=  0.00002109 RMS(Int)=  0.00000000
 Iteration  2 RMS(Cart)=  0.00000000 RMS(Int)=  0.00000000
 ClnCor:  largest displacement from symmetrization is 2.86D-07 for atom    22.
 Variable       Old X    -DE/DX   Delta X   Delta X   Delta X     New X
                                  (DIIS)     (GDIIS)  (Total)
    R1        2.87099   0.00000   0.00000   0.00000   0.00000   2.87099
    R2        2.48369   0.00000   0.00000   0.00000   0.00000   2.48369
    R3        2.48369   0.00000   0.00000   0.00000   0.00000   2.48369
    R4        2.09050   0.00000   0.00000   0.00000   0.00000   2.09050
    R5        2.08185   0.00000   0.00000   0.00000   0.00000   2.08184
    R6        2.08185   0.00000   0.00000   0.00000   0.00000   2.08184
    R7        2.87039   0.00000   0.00000   0.00000   0.00000   2.87039
    R8        2.48397   0.00000   0.00000   0.00000   0.00000   2.48397
    R9        2.48397   0.00000   0.00000   0.00000   0.00000   2.48397
   R10        2.09048   0.00000   0.00000   0.00000   0.00000   2.09048
   R11        2.08183   0.00000   0.00000   0.00000   0.00000   2.08183
   R12        2.08183   0.00000   0.00000   0.00000   0.00000   2.08183
   R13        3.92528   0.00000   0.00000   0.00000   0.00000   3.92528
   R14        3.92528   0.00000   0.00000   0.00000   0.00000   3.92528
   R15        3.92426   0.00000   0.00000   0.00000   0.00000   3.92426
   R16        3.92426   0.00000   0.00000   0.00000   0.00000   3.92426
   R17        2.48397   0.00000   0.00000   0.00000   0.00000   2.48397
   R18        4.29929   0.00000   0.00000   0.00000   0.00000   4.29929
   R19        1.85491   0.00000   0.00000   0.00000   0.00000   1.85491
   R20        1.85491   0.00000   0.00000   0.00000   0.00000   1.85491
   R21        4.63025   0.00000   0.00000   0.00000   0.00000   4.63025
   R22        3.92528   0.00000   0.00000   0.00000   0.00000   3.92528
   R23        3.92426   0.00000   0.00000   0.00000   0.00000   3.92426
   R24        3.92528   0.00000   0.00000   0.00000   0.00000   3.92528
   R25        3.92426   0.00000   0.00000   0.00000   0.00000   3.92426
   R26        4.29929   0.00000   0.00000   0.00000   0.00000   4.29929
   R27        2.48369   0.00000   0.00000   0.00000   0.00000   2.48369
   R28        2.48397   0.00000   0.00000   0.00000   0.00000   2.48397
   R29        2.87039   0.00000   0.00000   0.00000   0.00000   2.87039
   R30        2.48369   0.00000   0.00000   0.00000   0.00000   2.48369
   R31        1.85491   0.00000   0.00000   0.00000   0.00000   1.85491
   R32        1.85491   0.00000   0.00000   0.00000   0.00000   1.85491
   R33        2.87099   0.00000   0.00000   0.00000   0.00000   2.87099
   R34        2.09048   0.00000   0.00000   0.00000   0.00000   2.09048
   R35        2.08183   0.00000   0.00000   0.00000   0.00000   2.08183
   R36        2.08183   0.00000   0.00000   0.00000   0.00000   2.08183
   R37        2.09050   0.00000   0.00000   0.00000   0.00000   2.09050
   R38        2.08185   0.00000   0.00000   0.00000   0.00000   2.08184
   R39        2.08185   0.00000   0.00000   0.00000   0.00000   2.08184
    A1        2.04744   0.00000   0.00000   0.00000   0.00000   2.04744
    A2        2.04744   0.00000   0.00000   0.00000   0.00000   2.04744
    A3        2.18810   0.00000   0.00000   0.00000   0.00000   2.18810
    A4        1.90863   0.00000   0.00000   0.00000   0.00000   1.90863
    A5        1.92162   0.00000   0.00000   0.00000   0.00000   1.92162
    A6        1.92162   0.00000   0.00000   0.00000   0.00000   1.92162
    A7        1.88966   0.00000   0.00000   0.00000   0.00000   1.88966
    A8        1.88966   0.00000   0.00000   0.00000   0.00000   1.88966
    A9        1.93195   0.00000   0.00000   0.00000   0.00000   1.93195
   A10        2.04856   0.00000   0.00000   0.00000   0.00000   2.04856
   A11        2.04856   0.00000   0.00000   0.00000   0.00000   2.04856
   A12        2.18585   0.00000   0.00000   0.00000   0.00000   2.18585
   A13        1.90887   0.00000   0.00000   0.00000   0.00000   1.90887
   A14        1.92220   0.00000   0.00000   0.00000   0.00000   1.92220
   A15        1.92220   0.00000   0.00000   0.00000   0.00000   1.92220
   A16        1.88994   0.00000   0.00000   0.00000   0.00000   1.88994
   A17        1.88994   0.00000   0.00000   0.00000   0.00000   1.88994
   A18        1.93001   0.00000   0.00000   0.00000   0.00000   1.93001
   A19        2.07510   0.00000   0.00000   0.00000   0.00000   2.07510
   A20        2.07510   0.00000   0.00000   0.00000   0.00000   2.07510
   A21        2.07650   0.00000   0.00000   0.00000   0.00000   2.07650
   A22        2.07650   0.00000   0.00000   0.00000   0.00000   2.07650
   A23        2.14985   0.00000   0.00000   0.00000   0.00000   2.14985
   A24        2.14985   0.00000   0.00000   0.00000   0.00000   2.14985
   A25        1.98349   0.00000   0.00000   0.00000   0.00000   1.98349
   A26        1.56988   0.00000   0.00001   0.00000   0.00001   1.56989
   A27        1.57017   0.00000  -0.00001   0.00000  -0.00001   1.57016
   A28        1.59841   0.00000   0.00000   0.00000   0.00000   1.59841
   A29        1.54318   0.00000   0.00000   0.00000   0.00000   1.54318
   A30        1.59868   0.00000   0.00000   0.00000   0.00000   1.59868
   A31        1.54291   0.00000   0.00000   0.00000   0.00000   1.54291
   A32        1.57017   0.00000  -0.00001   0.00000  -0.00001   1.57016
   A33        1.59868   0.00000   0.00000   0.00000   0.00000   1.59868
   A34        1.54291   0.00000   0.00000   0.00000   0.00000   1.54291
   A35        1.56988   0.00000   0.00001   0.00000   0.00001   1.56989
   A36        1.59841   0.00000   0.00000   0.00000   0.00000   1.59841
   A37        1.54318   0.00000   0.00000   0.00000   0.00000   1.54318
   A38        1.54318   0.00000   0.00000   0.00000   0.00000   1.54318
   A39        1.56988   0.00000   0.00001   0.00000   0.00001   1.56989
   A40        1.57017   0.00000  -0.00001   0.00000  -0.00001   1.57016
   A41        1.59841   0.00000   0.00000   0.00000   0.00000   1.59841
   A42        1.54291   0.00000   0.00000   0.00000   0.00000   1.54291
   A43        1.54318   0.00000   0.00000   0.00000   0.00000   1.54318
   A44        1.54291   0.00000   0.00000   0.00000   0.00000   1.54291
   A45        1.57017   0.00000  -0.00001   0.00000  -0.00001   1.57016
   A46        1.59868   0.00000   0.00000   0.00000   0.00000   1.59868
   A47        1.56988   0.00000   0.00001   0.00000   0.00001   1.56989
   A48        1.59841   0.00000   0.00000   0.00000   0.00000   1.59841
   A49        1.59868   0.00000   0.00000   0.00000   0.00000   1.59868
   A50        2.07510   0.00000   0.00000   0.00000   0.00000   2.07510
   A51        2.07650   0.00000   0.00000   0.00000   0.00000   2.07650
   A52        2.18585   0.00000   0.00000   0.00000   0.00000   2.18585
   A53        2.04856   0.00000   0.00000   0.00000   0.00000   2.04856
   A54        2.04856   0.00000   0.00000   0.00000   0.00000   2.04856
   A55        2.07510   0.00000   0.00000   0.00000   0.00000   2.07510
   A56        2.07650   0.00000   0.00000   0.00000   0.00000   2.07650
   A57        2.14985   0.00000   0.00000   0.00000   0.00000   2.14985
   A58        2.14985   0.00000   0.00000   0.00000   0.00000   2.14985
   A59        1.98349   0.00000   0.00000   0.00000   0.00000   1.98349
   A60        2.18810   0.00000   0.00000   0.00000   0.00000   2.18810
   A61        2.04744   0.00000   0.00000   0.00000   0.00000   2.04744
   A62        2.04744   0.00000   0.00000   0.00000   0.00000   2.04744
   A63        1.90887   0.00000   0.00000   0.00000   0.00000   1.90887
   A64        1.92220   0.00000   0.00000   0.00000   0.00000   1.92220
   A65        1.92220   0.00000   0.00000   0.00000   0.00000   1.92220
   A66        1.88994   0.00000   0.00000   0.00000   0.00000   1.88994
   A67        1.88994   0.00000   0.00000   0.00000   0.00000   1.88994
   A68        1.93001   0.00000   0.00000   0.00000   0.00000   1.93001
   A69        1.90863   0.00000   0.00000   0.00000   0.00000   1.90863
   A70        1.92162   0.00000   0.00000   0.00000   0.00000   1.92162
   A71        1.92162   0.00000   0.00000   0.00000   0.00000   1.92162
   A72        1.88966   0.00000   0.00000   0.00000   0.00000   1.88966
   A73        1.88966   0.00000   0.00000   0.00000   0.00000   1.88966
   A74        1.93195   0.00000   0.00000   0.00000   0.00000   1.93195
    D1        1.56036   0.00000   0.00000  -0.00001   0.00000   1.56036
    D2       -2.64865   0.00000   0.00000  -0.00001   0.00000  -2.64866
    D3       -0.51381   0.00000   0.00000  -0.00001   0.00000  -0.51382
    D4       -1.56036   0.00000   0.00000   0.00001   0.00000  -1.56036
    D5        0.51381   0.00000   0.00000   0.00001   0.00000   0.51382
    D6        2.64865   0.00000   0.00000   0.00001   0.00000   2.64866
    D7       -3.10255   0.00000   0.00000   0.00001   0.00001  -3.10254
    D8        0.01630   0.00000   0.00001   0.00000   0.00000   0.01630
    D9        3.10255   0.00000   0.00000  -0.00001  -0.00001   3.10254
   D10       -0.01630   0.00000  -0.00001   0.00000   0.00000  -0.01630
   D11        1.56016   0.00000   0.00000   0.00000   0.00000   1.56016
   D12       -2.64802   0.00000   0.00000   0.00000   0.00000  -2.64802
   D13       -0.51485   0.00000   0.00000   0.00000   0.00000  -0.51485
   D14       -1.56016   0.00000   0.00000   0.00000   0.00000  -1.56016
   D15        0.51485   0.00000   0.00000   0.00000   0.00000   0.51485
   D16        2.64802   0.00000   0.00000   0.00000   0.00000   2.64802
   D17       -3.10195   0.00000   0.00000   0.00000   0.00000  -3.10195
   D18        0.01651   0.00000   0.00000  -0.00001  -0.00001   0.01650
   D19        3.10195   0.00000   0.00000   0.00000   0.00000   3.10195
   D20       -0.01651   0.00000   0.00000   0.00001   0.00001  -0.01650
   D21       -1.55041   0.00000   0.00000   0.00000   0.00000  -1.55041
   D22        1.53543   0.00000   0.00000   0.00000   0.00000   1.53543
   D23        3.13411   0.00000   0.00000   0.00000   0.00000   3.13411
   D24       -0.00748   0.00000   0.00000   0.00000   0.00000  -0.00748
   D25       -0.01474   0.00000   0.00000   0.00000   0.00000  -0.01474
   D26        0.00748   0.00000   0.00000   0.00000   0.00000   0.00748
   D27        1.55041   0.00000   0.00000   0.00000   0.00000   1.55041
   D28       -1.53543   0.00000   0.00000   0.00000   0.00000  -1.53543
   D29       -3.13411   0.00000   0.00000   0.00000   0.00000  -3.13411
   D30        0.01474   0.00000   0.00000   0.00000   0.00000   0.01474
   D31        1.53560   0.00000   0.00000   0.00000   0.00000   1.53560
   D32        3.13400   0.00000   0.00000   0.00000   0.00000   3.13400
   D33       -0.00759   0.00000   0.00000   0.00000   0.00000  -0.00759
   D34       -1.55078   0.00000   0.00000   0.00000   0.00000  -1.55078
   D35       -1.55078   0.00000   0.00000   0.00000   0.00000  -1.55078
   D36        3.13400   0.00000   0.00000   0.00000   0.00000   3.13400
   D37       -0.00759   0.00000   0.00000   0.00000   0.00000  -0.00759
   D38        1.53560   0.00000   0.00000   0.00000   0.00000   1.53560
   D39        0.01651   0.00000   0.00000  -0.00001  -0.00001   0.01650
   D40       -3.10195   0.00000   0.00000   0.00000   0.00000  -3.10195
   D41        1.56501   0.00000   0.00000   0.00000   0.00000   1.56501
   D42       -0.00564   0.00000  -0.00001   0.00000  -0.00001  -0.00565
   D43        3.13595   0.00000  -0.00001   0.00000  -0.00001   3.13594
   D44       -1.57659   0.00000   0.00000   0.00000   0.00000  -1.57658
   D45       -1.57659   0.00000   0.00000   0.00000   0.00000  -1.57658
   D46        3.13595   0.00000  -0.00001   0.00000  -0.00001   3.13594
   D47       -0.00564   0.00000  -0.00001   0.00000  -0.00001  -0.00565
   D48        1.56501   0.00000   0.00000   0.00000   0.00000   1.56501
   D49        1.56501   0.00000   0.00000   0.00000   0.00000   1.56501
   D50       -0.00564   0.00000  -0.00001   0.00000  -0.00001  -0.00565
   D51       -1.57659   0.00000   0.00000   0.00000   0.00000  -1.57658
   D52        3.13595   0.00000  -0.00001   0.00000  -0.00001   3.13594
   D53       -1.57659   0.00000   0.00000   0.00000   0.00000  -1.57658
   D54        3.13595   0.00000  -0.00001   0.00000  -0.00001   3.13594
   D55        1.56501   0.00000   0.00000   0.00000   0.00000   1.56501
   D56       -0.00564   0.00000  -0.00001   0.00000  -0.00001  -0.00565
   D57        3.14159   0.00000   0.00000   0.00000   0.00000   3.14159
   D58        0.00000   0.00000   0.00000   0.00000   0.00000   0.00000
   D59        0.00000   0.00000   0.00000   0.00000   0.00000   0.00000
   D60        3.14159   0.00000   0.00000   0.00000   0.00000   3.14159
   D61        0.00000   0.00000   0.00000   0.00000   0.00000   0.00000
   D62       -1.57065   0.00000  -0.00001   0.00000  -0.00001  -1.57066
   D63        3.14159   0.00000   0.00000   0.00000   0.00000   3.14159
   D64        1.57094   0.00000  -0.00001   0.00000  -0.00001   1.57093
   D65        1.57065   0.00000   0.00001   0.00000   0.00001   1.57066
   D66        0.00000   0.00000   0.00000   0.00000   0.00000   0.00000
   D67       -1.57094   0.00000   0.00001   0.00000   0.00001  -1.57093
   D68        3.14159   0.00000   0.00000   0.00000   0.00000   3.14159
   D69       -1.57094   0.00000   0.00001   0.00000   0.00001  -1.57093
   D70       -3.14159   0.00000   0.00000   0.00000   0.00000   3.14159
   D71        1.57065   0.00000   0.00001   0.00000   0.00001   1.57066
   D72        0.00000   0.00000   0.00000   0.00000   0.00000   0.00000
   D73        3.14159   0.00000   0.00000   0.00000   0.00000   3.14159
   D74        1.57094   0.00000  -0.00001   0.00000  -0.00001   1.57093
   D75        0.00000   0.00000   0.00000   0.00000   0.00000   0.00000
   D76       -1.57065   0.00000  -0.00001   0.00000  -0.00001  -1.57066
   D77        1.53543   0.00000   0.00000   0.00000   0.00000   1.53543
   D78       -1.55041   0.00000   0.00000   0.00000   0.00000  -1.55041
   D79        3.13411   0.00000   0.00000   0.00000   0.00000   3.13411
   D80       -0.00748   0.00000   0.00000   0.00000   0.00000  -0.00748
   D81        1.57659   0.00000   0.00000   0.00000   0.00000   1.57658
   D82       -1.56501   0.00000   0.00000   0.00000   0.00000  -1.56501
   D83       -3.13595   0.00000   0.00001   0.00000   0.00001  -3.13594
   D84        0.00564   0.00000   0.00001   0.00000   0.00001   0.00565
   D85        0.00564   0.00000   0.00001   0.00000   0.00001   0.00565
   D86       -3.13595   0.00000   0.00001   0.00000   0.00001  -3.13594
   D87       -1.56501   0.00000   0.00000   0.00000   0.00000  -1.56501
   D88        1.57659   0.00000   0.00000   0.00000   0.00000   1.57658
   D89       -1.53560   0.00000   0.00000   0.00000   0.00000  -1.53560
   D90        0.00759   0.00000   0.00000   0.00000   0.00000   0.00759
   D91        1.55078   0.00000   0.00000   0.00000   0.00000   1.55078
   D92       -3.13400   0.00000   0.00000   0.00000   0.00000  -3.13400
   D93        0.01496   0.00000   0.00000   0.00000  -0.00001   0.01496
   D94        0.00748   0.00000   0.00000   0.00000   0.00000   0.00748
   D95       -1.53543   0.00000   0.00000   0.00000   0.00000  -1.53543
   D96        1.55041   0.00000   0.00000   0.00000   0.00000   1.55041
   D97       -3.13411   0.00000   0.00000   0.00000   0.00000  -3.13411
   D98        1.55078   0.00000   0.00000   0.00000   0.00000   1.55078
   D99        0.00759   0.00000   0.00000   0.00000   0.00000   0.00759
   D100      -1.53560   0.00000   0.00000   0.00000   0.00000  -1.53560
   D101      -3.13400   0.00000   0.00000   0.00000   0.00000  -3.13400
   D102       1.57659   0.00000   0.00000   0.00000   0.00000   1.57658
   D103      -1.56501   0.00000   0.00000   0.00000   0.00000  -1.56501
   D104      -3.13595   0.00000   0.00001   0.00000   0.00001  -3.13594
   D105       0.00564   0.00000   0.00001   0.00000   0.00001   0.00565
   D106      -1.56501   0.00000   0.00000   0.00000   0.00000  -1.56501
   D107       1.57659   0.00000   0.00000   0.00000   0.00000   1.57658
   D108       0.00564   0.00000   0.00001   0.00000   0.00001   0.00565
   D109      -3.13595   0.00000   0.00001   0.00000   0.00001  -3.13594
   D110       0.01630   0.00000   0.00001   0.00000   0.00000   0.01630
   D111      -3.10255   0.00000   0.00000   0.00001   0.00001  -3.10254
   D112      -0.01651   0.00000   0.00000   0.00001   0.00001  -0.01650
   D113       3.10195   0.00000   0.00000   0.00000   0.00000   3.10195
   D114       1.56016   0.00000   0.00000   0.00000   0.00000   1.56016
   D115      -0.51485   0.00000   0.00000   0.00000   0.00000  -0.51485
   D116      -2.64802   0.00000   0.00000   0.00000   0.00000  -2.64802
   D117      -1.56016   0.00000   0.00000   0.00000   0.00000  -1.56016
   D118       2.64802   0.00000   0.00000   0.00000   0.00000   2.64802
   D119       0.51485   0.00000   0.00000   0.00000   0.00000   0.51485
   D120      -0.01630   0.00000  -0.00001   0.00000   0.00000  -0.01630
   D121       3.10255   0.00000   0.00000  -0.00001  -0.00001   3.10254
   D122       1.56036   0.00000   0.00000  -0.00001   0.00000   1.56036
   D123      -0.51381   0.00000   0.00000  -0.00001   0.00000  -0.51382
   D124      -2.64865   0.00000   0.00000  -0.00001   0.00000  -2.64866
   D125      -1.56036   0.00000   0.00000   0.00001   0.00000  -1.56036
   D126       2.64865   0.00000   0.00000   0.00001   0.00000   2.64866
   D127       0.51381   0.00000   0.00000   0.00001   0.00000   0.51382
         Item               Value     Threshold  Converged?
 Maximum Force            0.000000     0.000002     YES
 RMS     Force            0.000000     0.000001     YES
 Maximum Displacement     0.000080     0.000006     NO 
 RMS     Displacement     0.000021     0.000004     NO 
 Predicted change in Energy=-5.209983D-11
 GradGradGradGradGradGradGradGradGradGradGradGradGradGradGradGradGradGrad

                          Input orientation:                          
 ---------------------------------------------------------------------
 Center     Atomic      Atomic             Coordinates (Angstroms)
 Number     Number       Type             X           Y           Z
 ---------------------------------------------------------------------
      1          6           0       -0.008632    2.679440    0.000000
      2          6           0       -0.061034    4.197798    0.000000
      3          6           0        2.680261    0.009116    0.000000
      4          6           0        4.198269    0.062469    0.000000
      5          1           0       -1.116772    4.528239    0.000000
      6          1           0        0.424669    4.593395    0.906235
      7          1           0        0.424669    4.593395   -0.906235
      8          1           0        4.528288    1.118331    0.000000
      9          1           0        4.594795   -0.423606    0.905618
     10          1           0        4.594795   -0.423606   -0.905618
     11          8           0       -0.000018    2.076379   -1.167755
     12          8           0       -0.000018    2.076379    1.167755
     13          8           0        2.075820    0.000299   -1.167208
     14          8           0       -2.075820   -0.000299   -1.167208
     15          8           0        0.000000    0.000000   -3.500196
     16         45           0        0.000000    0.000000   -1.225110
     17         45           0        0.000000    0.000000    1.225110
     18          8           0        0.000018   -2.076379   -1.167755
     19          8           0        2.075820    0.000299    1.167208
     20          6           0       -2.680261   -0.009116    0.000000
     21          8           0        0.000018   -2.076379    1.167755
     22          8           0       -2.075820   -0.000299    1.167208
     23          8           0        0.000000    0.000000    3.500196
     24          6           0        0.008632   -2.679440    0.000000
     25          6           0       -4.198269   -0.062469    0.000000
     26          6           0        0.061034   -4.197798    0.000000
     27          1           0        1.116772   -4.528239    0.000000
     28          1           0       -0.424669   -4.593395   -0.906235
     29          1           0       -0.424669   -4.593395    0.906235
     30          1           0       -4.528288   -1.118331    0.000000
     31          1           0       -4.594795    0.423606   -0.905618
     32          1           0       -4.594795    0.423606    0.905618
     33          1           0       -0.821551   -0.004763    4.037344
     34          1           0        0.821551    0.004763    4.037344
     35          1           0        0.821551    0.004763   -4.037344
     36          1           0       -0.821551   -0.004763   -4.037344
 ---------------------------------------------------------------------
                    Distance matrix (angstroms):
                    1          2          3          4          5
     1  C    0.000000
     2  C    1.519262   0.000000
     3  C    3.789562   5.005972   0.000000
     4  C    4.954448   5.936548   1.518945   0.000000
     5  H    2.155465   1.106243   5.902536   6.942100   0.000000
     6  H    2.161535   1.101665   5.188889   5.965786   1.789287
     7  H    2.161535   1.101665   5.188889   5.965786   1.789287
     8  H    4.797990   5.526753   2.155356   1.106235   6.595011
     9  H    5.624996   6.622255   2.161673   1.101656   7.613337
    10  H    5.624996   6.622255   2.161673   1.101656   7.613337
    11  O    1.314310   2.422353   3.580660   4.800531   2.936394
    12  O    1.314310   2.422353   3.580660   4.800531   2.936394
    13  O    3.589583   4.852578   1.314458   2.423021   5.661912
    14  O    3.580034   4.800600   4.897221   6.382046   4.773867
    15  O    4.408043   5.465949   4.408543   5.466327   5.831251
    16  Rh   2.946246   4.373343   2.946995   4.373815   4.822138
    17  Rh   2.946246   4.373343   2.946995   4.373815   4.822138
    18  O    4.897095   6.382215   3.591190   4.854239   6.799400
    19  O    3.589583   4.852578   1.314458   2.423021   5.661912
    20  C    3.790243   4.955651   5.360554   6.878903   4.799176
    21  O    4.897095   6.382215   3.591190   4.854239   6.799400
    22  O    3.580034   4.800600   4.897221   6.382046   4.773867
    23  O    4.408043   5.465949   4.408543   5.466327   5.831251
    24  C    5.358908   6.877591   3.790243   5.007108   7.295010
    25  C    5.007108   5.938568   6.878903   8.397468   5.529035
    26  C    6.877591   8.396483   4.955651   5.938568   8.805165
    27  H    7.295010   8.805165   4.799176   5.529035   9.327834
    28  H    7.340877   8.845256   5.625386   6.623435   9.192631
    29  H    7.340877   8.845256   5.625386   6.623435   9.192631
    30  H    5.903419   6.943888   7.296186   8.806083   6.597135
    31  H    5.190551   5.968221   7.342914   8.846951   5.455712
    32  H    5.190551   5.968221   7.342914   8.846951   5.455712
    33  H    4.915885   5.877078   5.344439   6.442302   6.077450
    34  H    4.913578   5.887329   4.444657   5.263621   6.365460
    35  H    4.913578   5.887329   4.444657   5.263621   6.365460
    36  H    4.915885   5.877078   5.344439   6.442302   6.077450
                    6          7          8          9         10
     6  H    0.000000
     7  H    1.812469   0.000000
     8  H    5.453166   5.453166   0.000000
     9  H    6.523821   6.770750   1.789451   0.000000
    10  H    6.770750   6.523821   1.789451   1.811237   0.000000
    11  O    3.288946   2.565954   4.773580   5.626820   5.237456
    12  O    2.565954   3.288946   4.773580   5.237456   5.626820
    13  O    5.303017   4.887835   2.937170   3.289611   2.567754
    14  O    5.626156   5.236657   6.799114   6.998064   6.689149
    15  O    6.379361   5.292283   5.831589   6.379873   5.293714
    16  Rh   5.081560   4.623992   4.822546   5.082478   4.625328
    17  Rh   4.623992   5.081560   4.822546   4.625328   5.082478
    18  O    6.997689   6.688393   5.663484   5.304952   4.890026
    19  O    4.887835   5.303017   2.937170   2.567754   3.289611
    20  C    5.625386   5.625386   7.296186   7.342914   7.342914
    21  O    6.688393   6.997689   5.663484   4.890026   5.304952
    22  O    5.236657   5.626156   6.799114   6.689149   6.998064
    23  O    5.292283   6.379361   5.831589   5.293714   6.379873
    24  C    7.340877   7.340877   5.903419   5.190551   5.190551
    25  C    6.623435   6.623435   8.806083   8.846951   8.846951
    26  C    8.845256   8.845256   6.943888   5.968221   5.968221
    27  H    9.192631   9.192631   6.597135   5.455712   5.455712
    28  H    9.402315   9.225968   7.614254   6.772368   6.525501
    29  H    9.225968   9.402315   7.614254   6.525501   6.772368
    30  H    7.614254   7.614254   9.328678   9.194206   9.194206
    31  H    6.772368   6.525501   9.194206   9.404621   9.228560
    32  H    6.525501   6.772368   9.194206   9.228560   9.404621
    33  H    5.700874   6.865500   6.795753   6.270561   7.344733
    34  H    5.569283   6.756629   5.592860   4.922254   6.233278
    35  H    6.756629   5.569283   5.592860   6.233278   4.922254
    36  H    6.865500   5.700874   6.795753   7.344733   6.270561
                   11         12         13         14         15
    11  O    0.000000
    12  O    2.335511   0.000000
    13  O    2.935849   3.751168   0.000000
    14  O    2.936247   3.751480   4.151640   0.000000
    15  O    3.122759   5.108925   3.122797   3.122797   0.000000
    16  Rh   2.077171   3.168147   2.076627   2.076627   2.275085
    17  Rh   3.168147   2.077171   3.167367   3.167367   4.725306
    18  O    4.152758   4.764452   2.936247   2.935849   3.122759
    19  O    3.751168   2.935849   2.334415   4.762941   5.108197
    20  C    3.591190   3.591190   4.897221   1.314458   4.408543
    21  O    4.764452   4.152758   3.751480   3.751168   5.108925
    22  O    3.751480   2.936247   4.762941   2.334415   5.108197
    23  O    5.108925   3.122759   5.108197   5.108197   7.000391
    24  C    4.897095   4.897095   3.580034   3.589583   4.408043
    25  C    4.854239   4.854239   6.382046   2.423021   5.466327
    26  C    6.382215   6.382215   4.800600   4.852578   5.465949
    27  H    6.799400   6.799400   4.773867   5.661912   5.831251
    28  H    6.688393   6.997689   5.236657   4.887835   5.292283
    29  H    6.997689   6.688393   5.626156   5.303017   6.379361
    30  H    5.663484   5.663484   6.799114   2.937170   5.831589
    31  H    4.890026   5.304952   6.689149   2.567754   5.293714
    32  H    5.304952   4.890026   6.998064   3.289611   6.379873
    33  H    5.665609   3.638764   5.956689   5.353557   7.582181
    34  H    5.662122   3.633333   5.353557   5.956689   7.582181
    35  H    3.633333   5.662122   3.132235   4.078292   0.981579
    36  H    3.638764   5.665609   4.078292   3.132235   0.981579
                   16         17         18         19         20
    16  Rh   0.000000
    17  Rh   2.450220   0.000000
    18  O    2.077171   3.168147   0.000000
    19  O    3.167367   2.076627   3.751480   0.000000
    20  C    2.946995   2.946995   3.580660   4.897221   0.000000
    21  O    3.168147   2.077171   2.335511   2.936247   3.580660
    22  O    3.167367   2.076627   3.751168   4.151640   1.314458
    23  O    4.725306   2.275085   5.108925   3.122797   4.408543
    24  C    2.946246   2.946246   1.314310   3.580034   3.789562
    25  C    4.373815   4.373815   4.800531   6.382046   1.518945
    26  C    4.373343   4.373343   2.422353   4.800600   5.005972
    27  H    4.822138   4.822138   2.936394   4.773867   5.902536
    28  H    4.623992   5.081560   2.565954   5.626156   5.188889
    29  H    5.081560   4.623992   3.288946   5.236657   5.188889
    30  H    4.822546   4.822546   4.773580   6.799114   2.155356
    31  H    4.625328   5.082478   5.237456   6.998064   2.161673
    32  H    5.082478   4.625328   5.626820   6.689149   2.161673
    33  H    5.326199   2.929783   5.662122   4.078292   4.444657
    34  H    5.326199   2.929783   5.665609   3.132235   5.344439
    35  H    2.929783   5.326199   3.638764   5.353557   5.344439
    36  H    2.929783   5.326199   3.633333   5.956689   4.444657
                   21         22         23         24         25
    21  O    0.000000
    22  O    2.935849   0.000000
    23  O    3.122759   3.122797   0.000000
    24  C    1.314310   3.589583   4.408043   0.000000
    25  C    4.800531   2.423021   5.466327   4.954448   0.000000
    26  C    2.422353   4.852578   5.465949   1.519262   5.936548
    27  H    2.936394   5.661912   5.831251   2.155465   6.942100
    28  H    3.288946   5.303017   6.379361   2.161535   5.965786
    29  H    2.565954   4.887835   5.292283   2.161535   5.965786
    30  H    4.773580   2.937170   5.831589   4.797990   1.106235
    31  H    5.626820   3.289611   6.379873   5.624996   1.101656
    32  H    5.237456   2.567754   5.293714   5.624996   1.101656
    33  H    3.633333   3.132235   0.981579   4.913578   5.263621
    34  H    3.638764   4.078292   0.981579   4.915885   6.442302
    35  H    5.665609   5.956689   7.582181   4.915885   6.442302
    36  H    5.662122   5.353557   7.582181   4.913578   5.263621
                   26         27         28         29         30
    26  C    0.000000
    27  H    1.106243   0.000000
    28  H    1.101665   1.789287   0.000000
    29  H    1.101665   1.789287   1.812469   0.000000
    30  H    5.526753   6.595011   5.453166   5.453166   0.000000
    31  H    6.622255   7.613337   6.523821   6.770750   1.789451
    32  H    6.622255   7.613337   6.770750   6.523821   1.789451
    33  H    5.887329   6.365460   6.756629   5.569283   5.592860
    34  H    5.877078   6.077450   6.865500   5.700874   6.795753
    35  H    5.877078   6.077450   5.700874   6.865500   6.795753
    36  H    5.887329   6.365460   5.569283   6.756629   5.592860
                   31         32         33         34         35
    31  H    0.000000
    32  H    1.811237   0.000000
    33  H    6.233278   4.922254   0.000000
    34  H    7.344733   6.270561   1.643129   0.000000
    35  H    6.270561   7.344733   8.240174   8.074689   0.000000
    36  H    4.922254   6.233278   8.074689   8.240174   1.643129
                   36
    36  H    0.000000
 Stoichiometry    C8H16O10Rh2
 Framework group  C2H[C2(ORh.RhO),SGH(C8H4),X(H12O8)]
 Deg. of freedom    28
 Full point group                 C2H     NOp   4
 Largest Abelian subgroup         C2H     NOp   4
 Largest concise Abelian subgroup C2H     NOp   4
                         Standard orientation:                         
 ---------------------------------------------------------------------
 Center     Atomic      Atomic             Coordinates (Angstroms)
 Number     Number       Type             X           Y           Z
 ---------------------------------------------------------------------
      1          6           0       -0.008609    2.679440    0.000000
      2          6           0       -0.060998    4.197798    0.000000
      3          6           0        2.680261    0.009093    0.000000
      4          6           0        4.198270    0.062434    0.000000
      5          1           0       -1.116733    4.528248    0.000000
      6          1           0        0.424709    4.593391    0.906235
      7          1           0        0.424709    4.593391   -0.906235
      8          1           0        4.528298    1.118292    0.000000
      9          1           0        4.594791   -0.423645    0.905618
     10          1           0        4.594791   -0.423645   -0.905618
     11          8           0        0.000000    2.076379   -1.167755
     12          8           0        0.000000    2.076379    1.167755
     13          8           0        2.075820    0.000282   -1.167208
     14          8           0       -2.075820   -0.000282   -1.167208
     15          8           0        0.000000    0.000000   -3.500196
     16         45           0        0.000000    0.000000   -1.225110
     17         45           0        0.000000    0.000000    1.225110
     18          8           0        0.000000   -2.076379   -1.167755
     19          8           0        2.075820    0.000282    1.167208
     20          6           0       -2.680261   -0.009093    0.000000
     21          8           0        0.000000   -2.076379    1.167755
     22          8           0       -2.075820   -0.000282    1.167208
     23          8           0        0.000000    0.000000    3.500196
     24          6           0        0.008609   -2.679440    0.000000
     25          6           0       -4.198270   -0.062434    0.000000
     26          6           0        0.060998   -4.197798    0.000000
     27          1           0        1.116733   -4.528248    0.000000
     28          1           0       -0.424709   -4.593391   -0.906235
     29          1           0       -0.424709   -4.593391    0.906235
     30          1           0       -4.528298   -1.118292    0.000000
     31          1           0       -4.594791    0.423645   -0.905618
     32          1           0       -4.594791    0.423645    0.905618
     33          1           0       -0.821551   -0.004756    4.037344
     34          1           0        0.821551    0.004756    4.037344
     35          1           0        0.821551    0.004756   -4.037344
     36          1           0       -0.821551   -0.004756   -4.037344
 ---------------------------------------------------------------------
 Rotational constants (GHZ):      0.2593921      0.2590111      0.2521354
 Standard basis: LANL2DZ (5D, 7F)
 There are    73 symmetry adapted basis functions of AG  symmetry.
 There are    46 symmetry adapted basis functions of BG  symmetry.
 There are    49 symmetry adapted basis functions of AU  symmetry.
 There are    70 symmetry adapted basis functions of BU  symmetry.
 Integral buffers will be    131072 words long.
 Raffenetti 2 integral format.
 Two-electron integral symmetry is turned on.
   238 basis functions,   612 primitive gaussians,   242 cartesian basis functions
    89 alpha electrons       89 beta electrons
       nuclear repulsion energy      2357.7433971913 Hartrees.
 NAtoms=   36 NActive=   36 NUniq=   13 SFac= 3.00D+00 NAtFMM=   80 NAOKFM=F Big=F
 One-electron integrals computed using PRISM.
   4 Symmetry operations used in ECPInt.
 ECPInt:  NShTT=    9591 NPrTT=   68474 LenC2=    9087 LenP2D=   38378.
 LDataN:  DoStor=T MaxTD1= 5 Len=  102
 NBasis=   238 RedAO= T  NBF=    73    46    49    70
 NBsUse=   238 1.00D-06 NBFU=    73    46    49    70
 Defaulting to unpruned grid for atomic number  45.
 Initial guess read from the read-write file.
 B after Tr=     0.000000    0.000000    0.000000
         Rot=    1.000000    0.000000    0.000000    0.000000 Ang=   0.00 deg.
 Initial guess orbital symmetries:
       Occupied  (AU) (AG) (AG) (AU) (BG) (BU) (AG) (AU) (BG) (BU)
                 (AG) (BU) (AG) (BU) (BU) (AG) (BU) (AG) (AG) (AU)
                 (BU) (BU) (BG) (BG) (AG) (AU) (AG) (BU) (AG) (BU)
                 (AU) (AG) (AU) (BG) (AU) (BG) (AG) (BU) (AG) (BU)
                 (BU) (BG) (AG) (AG) (BU) (BU) (AU) (AU) (BG) (BG)
                 (AG) (BU) (BU) (AG) (BU) (BU) (AG) (AG) (AG) (AU)
                 (AU) (BG) (AU) (BG) (AG) (BU) (BU) (AG) (AG) (AU)
                 (AG) (BU) (BG) (BU) (AU) (BU) (BG) (AU) (BG) (BG)
                 (BG) (AU) (AG) (BU) (BU) (AG) (AU) (BG) (BG)
       Virtual   (AU) (AU) (AG) (BU) (BU) (AG) (AG) (AU) (AG) (BU)
                 (BU) (BG) (AG) (BG) (BU) (AG) (AU) (AG) (BG) (BU)
                 (BU) (AG) (AG) (AU) (AG) (BU) (BU) (BG) (BG) (AU)
                 (AG) (BU) (AG) (BU) (AU) (AG) (BU) (BU) (AG) (AG)
                 (AU) (BG) (AG) (AU) (BG) (AG) (BU) (BU) (AG) (BU)
                 (BU) (BG) (AU) (BG) (AU) (BU) (BG) (BU) (BG) (AG)
                 (AU) (BU) (AG) (BU) (AG) (BG) (BG) (AU) (BU) (BU)
                 (AG) (AG) (AU) (AG) (AU) (AG) (AU) (BU) (BG) (BU)
                 (AG) (BG) (BU) (AU) (AG) (AU) (BU) (BU) (BG) (AG)
                 (AU) (BU) (BG) (AG) (AU) (BG) (AG) (BU) (BG) (BU)
                 (BU) (AG) (AU) (BU) (AG) (BG) (BG) (AU) (AG) (BU)
                 (AG) (BG) (AG) (AG) (AG) (BU) (BU) (AG) (AU) (AU)
                 (BU) (BG) (BU) (AG) (BG) (AG) (AU) (BG) (BU) (AU)
                 (AU) (BU) (AG) (BG) (BU) (BU) (AG) (AG) (AU) (BU)
                 (BU) (AU) (BG) (BG) (AG) (AU) (AG) (AU) (AG)
 Requested convergence on RMS density matrix=1.00D-08 within 128 cycles.
 Requested convergence on MAX density matrix=1.00D-06.
 Requested convergence on             energy=1.00D-06.
 No special actions if energy rises.
 Defaulting to unpruned grid for atomic number  45.
 Defaulting to unpruned grid for atomic number  45.
 Defaulting to unpruned grid for atomic number  45.
 Defaulting to unpruned grid for atomic number  45.
 Defaulting to unpruned grid for atomic number  45.
 Defaulting to unpruned grid for atomic number  45.
 SCF Done:  E(RB-P86) =  -1286.10632675     A.U. after    4 cycles
             Convg  =    0.9009D-08             -V/T =  2.1306
   4 Symmetry operations used in ECPInt.
 ECPInt:  NShTT=    9591 NPrTT=   68474 LenC2=    9087 LenP2D=   38378.
 LDataN:  DoStor=T MaxTD1= 6 Len=  172
 Calling FoFJK, ICntrl=      2527 FMM=F ISym2X=1 I1Cent= 0 IOpClX= 0 NMat=1 NMatS=1 NMatT=0.
 Defaulting to unpruned grid for atomic number  45.
 Defaulting to unpruned grid for atomic number  45.
 Defaulting to unpruned grid for atomic number  45.
 Defaulting to unpruned grid for atomic number  45.
 Defaulting to unpruned grid for atomic number  45.
 Defaulting to unpruned grid for atomic number  45.
 ***** Axes restored to original set *****
 -------------------------------------------------------------------
 Center     Atomic                   Forces (Hartrees/Bohr)
 Number     Number              X              Y              Z
 -------------------------------------------------------------------
      1        6          -0.000000718    0.000000001    0.000000000
      2        6           0.000000114   -0.000000078    0.000000000
      3        6          -0.000000212    0.000000332    0.000000000
      4        6          -0.000000300   -0.000000237    0.000000000
      5        1           0.000000147   -0.000000067    0.000000000
      6        1           0.000000117    0.000000083    0.000000114
      7        1           0.000000117    0.000000083   -0.000000114
      8        1           0.000000083    0.000000160    0.000000000
      9        1           0.000000095   -0.000000145    0.000000189
     10        1           0.000000095   -0.000000145   -0.000000189
     11        8           0.000000254    0.000000005   -0.000000188
     12        8           0.000000254    0.000000005    0.000000188
     13        8           0.000000138   -0.000000137    0.000000299
     14        8          -0.000000138    0.000000137    0.000000299
     15        8           0.000000000    0.000000000   -0.000000051
     16       45           0.000000000    0.000000000    0.000000050
     17       45           0.000000000    0.000000000   -0.000000050
     18        8          -0.000000254   -0.000000005   -0.000000188
     19        8           0.000000138   -0.000000137   -0.000000299
     20        6           0.000000212   -0.000000332    0.000000000
     21        8          -0.000000254   -0.000000005    0.000000188
     22        8          -0.000000138    0.000000137   -0.000000299
     23        8           0.000000000    0.000000000    0.000000051
     24        6           0.000000718   -0.000000001    0.000000000
     25        6           0.000000300    0.000000237    0.000000000
     26        6          -0.000000114    0.000000078    0.000000000
     27        1          -0.000000147    0.000000067    0.000000000
     28        1          -0.000000117   -0.000000083   -0.000000114
     29        1          -0.000000117   -0.000000083    0.000000114
     30        1          -0.000000083   -0.000000160    0.000000000
     31        1          -0.000000095    0.000000145   -0.000000189
     32        1          -0.000000095    0.000000145    0.000000189
     33        1          -0.000000033    0.000000011   -0.000000034
     34        1           0.000000033   -0.000000011   -0.000000034
     35        1           0.000000033   -0.000000011    0.000000034
     36        1          -0.000000033    0.000000011    0.000000034
 -------------------------------------------------------------------
 Cartesian Forces:  Max     0.000000718 RMS     0.000000170

 GradGradGradGradGradGradGradGradGradGradGradGradGradGradGradGradGradGrad
 Berny optimization.
 Using GEDIIS/GDIIS optimizer.
 Internal  Forces:  Max     0.000000267 RMS     0.000000071
 Search for a local minimum.
 Step number   3 out of a maximum of  216
 All quantities printed in internal units (Hartrees-Bohrs-Radians)
 Mixed Optimization -- En-DIIS/RFO-DIIS
 Swaping is turned off.
 Update second derivatives using D2CorX and points    1    2    3
 DE= -1.44D-10 DEPred=-5.21D-11 R= 2.76D+00
 Trust test= 2.76D+00 RLast= 7.77D-05 DXMaxT set to 3.00D-01
     Eigenvalues ---    0.00225   0.00230   0.00230   0.00230   0.00397
     Eigenvalues ---    0.00511   0.00511   0.00515   0.00515   0.01127
     Eigenvalues ---    0.01262   0.01264   0.01320   0.01734   0.01738
     Eigenvalues ---    0.01870   0.02251   0.02254   0.02385   0.02626
     Eigenvalues ---    0.03010   0.05176   0.05176   0.07206   0.07207
     Eigenvalues ---    0.07209   0.07221   0.07421   0.07421   0.07426
     Eigenvalues ---    0.07426   0.09377   0.09378   0.10017   0.10020
     Eigenvalues ---    0.11449   0.13186   0.13652   0.13672   0.14817
     Eigenvalues ---    0.14818   0.14838   0.14838   0.14900   0.15297
     Eigenvalues ---    0.15482   0.15995   0.16000   0.16000   0.16000
     Eigenvalues ---    0.16000   0.16000   0.16000   0.16000   0.16000
     Eigenvalues ---    0.16000   0.16000   0.16000   0.16000   0.16000
     Eigenvalues ---    0.16033   0.16225   0.17475   0.17489   0.18567
     Eigenvalues ---    0.18572   0.24193   0.24303   0.24307   0.24509
     Eigenvalues ---    0.24997   0.24997   0.24997   0.24997   0.30438
     Eigenvalues ---    0.30458   0.30468   0.30563   0.33001   0.33002
     Eigenvalues ---    0.33012   0.33225   0.33499   0.33499   0.33499
     Eigenvalues ---    0.33499   0.33500   0.33500   0.33500   0.36592
     Eigenvalues ---    0.51079   0.51079   0.51079   0.51081   0.56741
     Eigenvalues ---    0.56921   0.57318   0.58996   0.62151   0.62194
     Eigenvalues ---    0.62249   0.622821000.000001000.000001000.00000
     Eigenvalues --- 1000.000001000.000001000.000001000.000001000.00000
     Eigenvalues --- 1000.000001000.000001000.000001000.000001000.00000
     Eigenvalues --- 1000.000001000.000001000.000001000.000001000.00000
     Eigenvalues --- 1000.000001000.000001000.000001000.000001000.00000
     Eigenvalues --- 1000.000001000.000001000.000001000.000001000.00000
     Eigenvalues --- 1000.000001000.000001000.000001000.000001000.00000
     Eigenvalues --- 1000.000001000.000001000.000001000.000001000.00000
     Eigenvalues --- 1000.000001000.000001000.000001000.000001000.00000
     Eigenvalues --- 1000.000001000.000001000.000001000.000001000.00000
     Eigenvalues --- 1000.000001000.000001000.000001000.000001000.00000
     Eigenvalues --- 1000.000001000.000001000.000001000.000001000.00000
     Eigenvalues --- 1000.000001000.000001000.000001000.000001000.00000
     Eigenvalues --- 1000.000001000.000001000.000001000.000001000.00000
     Eigenvalues --- 1000.000001000.000001000.000001000.000001000.00000
     Eigenvalues --- 1000.000001000.000001000.000001000.000001000.00000
     Eigenvalues --- 1000.000001000.000001000.000001000.000001000.00000
     Eigenvalues --- 1000.000001000.000001000.000001000.000001000.00000
     Eigenvalues --- 1000.000001000.000001000.000001000.000001000.00000
     Eigenvalues --- 1000.000001000.000001000.000001000.000001000.00000
     Eigenvalues --- 1000.000001000.000001000.000001000.000001000.00000
     Eigenvalues --- 1000.000001000.000001000.000001000.000001000.00000
     Eigenvalues --- 1000.000001000.000001000.000001000.000001000.00000
     Eigenvalues --- 1000.000001000.000001000.000001000.000001000.00000
     Eigenvalues --- 1000.000001000.000001000.000001000.000001000.00000
     Eigenvalues --- 1000.000001000.000001000.000001000.000001000.00000
     Eigenvalues --- 1000.000001000.000001000.000001000.000001000.00000
     Eigenvalues --- 1000.000001000.000001000.000001000.000001000.00000
 En-DIIS/RFO-DIIS IScMMF=        0 using points:     3    2    1
 RFO step:  Lambda= 0.00000000D+00.
 DIIS coeffs:      0.65172      1.04243     -0.69415
 Iteration  1 RMS(Cart)=  0.00000131 RMS(Int)=  0.00000000
 Iteration  2 RMS(Cart)=  0.00000000 RMS(Int)=  0.00000000
 ClnCor:  largest displacement from symmetrization is 2.87D-08 for atom    31.
 Variable       Old X    -DE/DX   Delta X   Delta X   Delta X     New X
                                  (DIIS)     (GDIIS)  (Total)
    R1        2.87099   0.00000   0.00000   0.00000   0.00000   2.87099
    R2        2.48369   0.00000   0.00000   0.00000   0.00000   2.48369
    R3        2.48369   0.00000   0.00000   0.00000   0.00000   2.48369
    R4        2.09050   0.00000   0.00000   0.00000   0.00000   2.09050
    R5        2.08184   0.00000   0.00000   0.00000   0.00000   2.08185
    R6        2.08184   0.00000   0.00000   0.00000   0.00000   2.08185
    R7        2.87039   0.00000   0.00000   0.00000   0.00000   2.87039
    R8        2.48397   0.00000   0.00000   0.00000   0.00000   2.48397
    R9        2.48397   0.00000   0.00000   0.00000   0.00000   2.48397
   R10        2.09048   0.00000   0.00000   0.00000   0.00000   2.09048
   R11        2.08183   0.00000   0.00000   0.00000   0.00000   2.08183
   R12        2.08183   0.00000   0.00000   0.00000   0.00000   2.08183
   R13        3.92528   0.00000   0.00000   0.00000   0.00000   3.92528
   R14        3.92528   0.00000   0.00000   0.00000   0.00000   3.92528
   R15        3.92426   0.00000   0.00000   0.00000   0.00000   3.92426
   R16        3.92426   0.00000   0.00000   0.00000   0.00000   3.92426
   R17        2.48397   0.00000   0.00000   0.00000   0.00000   2.48397
   R18        4.29929   0.00000   0.00000   0.00000   0.00000   4.29929
   R19        1.85491   0.00000   0.00000   0.00000   0.00000   1.85491
   R20        1.85491   0.00000   0.00000   0.00000   0.00000   1.85491
   R21        4.63025   0.00000   0.00000   0.00000   0.00000   4.63024
   R22        3.92528   0.00000   0.00000   0.00000   0.00000   3.92528
   R23        3.92426   0.00000   0.00000   0.00000   0.00000   3.92426
   R24        3.92528   0.00000   0.00000   0.00000   0.00000   3.92528
   R25        3.92426   0.00000   0.00000   0.00000   0.00000   3.92426
   R26        4.29929   0.00000   0.00000   0.00000   0.00000   4.29929
   R27        2.48369   0.00000   0.00000   0.00000   0.00000   2.48369
   R28        2.48397   0.00000   0.00000   0.00000   0.00000   2.48397
   R29        2.87039   0.00000   0.00000   0.00000   0.00000   2.87039
   R30        2.48369   0.00000   0.00000   0.00000   0.00000   2.48369
   R31        1.85491   0.00000   0.00000   0.00000   0.00000   1.85491
   R32        1.85491   0.00000   0.00000   0.00000   0.00000   1.85491
   R33        2.87099   0.00000   0.00000   0.00000   0.00000   2.87099
   R34        2.09048   0.00000   0.00000   0.00000   0.00000   2.09048
   R35        2.08183   0.00000   0.00000   0.00000   0.00000   2.08183
   R36        2.08183   0.00000   0.00000   0.00000   0.00000   2.08183
   R37        2.09050   0.00000   0.00000   0.00000   0.00000   2.09050
   R38        2.08184   0.00000   0.00000   0.00000   0.00000   2.08185
   R39        2.08184   0.00000   0.00000   0.00000   0.00000   2.08185
    A1        2.04744   0.00000   0.00000   0.00000   0.00000   2.04744
    A2        2.04744   0.00000   0.00000   0.00000   0.00000   2.04744
    A3        2.18810   0.00000   0.00000   0.00000   0.00000   2.18810
    A4        1.90863   0.00000   0.00000   0.00000   0.00000   1.90863
    A5        1.92162   0.00000   0.00000   0.00000   0.00000   1.92162
    A6        1.92162   0.00000   0.00000   0.00000   0.00000   1.92162
    A7        1.88966   0.00000   0.00000   0.00000   0.00000   1.88966
    A8        1.88966   0.00000   0.00000   0.00000   0.00000   1.88966
    A9        1.93195   0.00000   0.00000   0.00000   0.00000   1.93195
   A10        2.04856   0.00000   0.00000   0.00000   0.00000   2.04856
   A11        2.04856   0.00000   0.00000   0.00000   0.00000   2.04856
   A12        2.18585   0.00000   0.00000   0.00000   0.00000   2.18585
   A13        1.90887   0.00000   0.00000   0.00000   0.00000   1.90887
   A14        1.92220   0.00000   0.00000   0.00000   0.00000   1.92220
   A15        1.92220   0.00000   0.00000   0.00000   0.00000   1.92220
   A16        1.88994   0.00000   0.00000   0.00000   0.00000   1.88994
   A17        1.88994   0.00000   0.00000   0.00000   0.00000   1.88994
   A18        1.93001   0.00000   0.00000   0.00000   0.00000   1.93001
   A19        2.07510   0.00000   0.00000   0.00000   0.00000   2.07510
   A20        2.07510   0.00000   0.00000   0.00000   0.00000   2.07510
   A21        2.07650   0.00000   0.00000   0.00000   0.00000   2.07650
   A22        2.07650   0.00000   0.00000   0.00000   0.00000   2.07650
   A23        2.14985   0.00000   0.00000   0.00000   0.00000   2.14985
   A24        2.14985   0.00000   0.00000   0.00000   0.00000   2.14985
   A25        1.98349   0.00000   0.00000   0.00000   0.00000   1.98349
   A26        1.56989   0.00000   0.00000   0.00000   0.00000   1.56989
   A27        1.57016   0.00000   0.00000   0.00000   0.00000   1.57016
   A28        1.59841   0.00000   0.00000   0.00000   0.00000   1.59841
   A29        1.54318   0.00000   0.00000   0.00000   0.00000   1.54318
   A30        1.59868   0.00000   0.00000   0.00000   0.00000   1.59868
   A31        1.54291   0.00000   0.00000   0.00000   0.00000   1.54291
   A32        1.57016   0.00000   0.00000   0.00000   0.00000   1.57016
   A33        1.59868   0.00000   0.00000   0.00000   0.00000   1.59868
   A34        1.54291   0.00000   0.00000   0.00000   0.00000   1.54291
   A35        1.56989   0.00000   0.00000   0.00000   0.00000   1.56989
   A36        1.59841   0.00000   0.00000   0.00000   0.00000   1.59841
   A37        1.54318   0.00000   0.00000   0.00000   0.00000   1.54318
   A38        1.54318   0.00000   0.00000   0.00000   0.00000   1.54318
   A39        1.56989   0.00000   0.00000   0.00000   0.00000   1.56989
   A40        1.57016   0.00000   0.00000   0.00000   0.00000   1.57016
   A41        1.59841   0.00000   0.00000   0.00000   0.00000   1.59841
   A42        1.54291   0.00000   0.00000   0.00000   0.00000   1.54291
   A43        1.54318   0.00000   0.00000   0.00000   0.00000   1.54318
   A44        1.54291   0.00000   0.00000   0.00000   0.00000   1.54291
   A45        1.57016   0.00000   0.00000   0.00000   0.00000   1.57016
   A46        1.59868   0.00000   0.00000   0.00000   0.00000   1.59868
   A47        1.56989   0.00000   0.00000   0.00000   0.00000   1.56989
   A48        1.59841   0.00000   0.00000   0.00000   0.00000   1.59841
   A49        1.59868   0.00000   0.00000   0.00000   0.00000   1.59868
   A50        2.07510   0.00000   0.00000   0.00000   0.00000   2.07510
   A51        2.07650   0.00000   0.00000   0.00000   0.00000   2.07650
   A52        2.18585   0.00000   0.00000   0.00000   0.00000   2.18585
   A53        2.04856   0.00000   0.00000   0.00000   0.00000   2.04856
   A54        2.04856   0.00000   0.00000   0.00000   0.00000   2.04856
   A55        2.07510   0.00000   0.00000   0.00000   0.00000   2.07510
   A56        2.07650   0.00000   0.00000   0.00000   0.00000   2.07650
   A57        2.14985   0.00000   0.00000   0.00000   0.00000   2.14985
   A58        2.14985   0.00000   0.00000   0.00000   0.00000   2.14985
   A59        1.98349   0.00000   0.00000   0.00000   0.00000   1.98349
   A60        2.18810   0.00000   0.00000   0.00000   0.00000   2.18810
   A61        2.04744   0.00000   0.00000   0.00000   0.00000   2.04744
   A62        2.04744   0.00000   0.00000   0.00000   0.00000   2.04744
   A63        1.90887   0.00000   0.00000   0.00000   0.00000   1.90887
   A64        1.92220   0.00000   0.00000   0.00000   0.00000   1.92220
   A65        1.92220   0.00000   0.00000   0.00000   0.00000   1.92220
   A66        1.88994   0.00000   0.00000   0.00000   0.00000   1.88994
   A67        1.88994   0.00000   0.00000   0.00000   0.00000   1.88994
   A68        1.93001   0.00000   0.00000   0.00000   0.00000   1.93001
   A69        1.90863   0.00000   0.00000   0.00000   0.00000   1.90863
   A70        1.92162   0.00000   0.00000   0.00000   0.00000   1.92162
   A71        1.92162   0.00000   0.00000   0.00000   0.00000   1.92162
   A72        1.88966   0.00000   0.00000   0.00000   0.00000   1.88966
   A73        1.88966   0.00000   0.00000   0.00000   0.00000   1.88966
   A74        1.93195   0.00000   0.00000   0.00000   0.00000   1.93195
    D1        1.56036   0.00000   0.00000   0.00000   0.00000   1.56036
    D2       -2.64866   0.00000   0.00000   0.00000   0.00000  -2.64865
    D3       -0.51382   0.00000   0.00000   0.00000   0.00000  -0.51381
    D4       -1.56036   0.00000   0.00000   0.00000   0.00000  -1.56036
    D5        0.51382   0.00000   0.00000   0.00000   0.00000   0.51381
    D6        2.64866   0.00000   0.00000   0.00000   0.00000   2.64865
    D7       -3.10254   0.00000   0.00000   0.00000   0.00000  -3.10255
    D8        0.01630   0.00000   0.00000   0.00000   0.00000   0.01630
    D9        3.10254   0.00000   0.00000   0.00000   0.00000   3.10255
   D10       -0.01630   0.00000   0.00000   0.00000   0.00000  -0.01630
   D11        1.56016   0.00000   0.00000   0.00000   0.00000   1.56016
   D12       -2.64802   0.00000   0.00000   0.00000   0.00000  -2.64802
   D13       -0.51485   0.00000   0.00000   0.00000   0.00000  -0.51485
   D14       -1.56016   0.00000   0.00000   0.00000   0.00000  -1.56016
   D15        0.51485   0.00000   0.00000   0.00000   0.00000   0.51485
   D16        2.64802   0.00000   0.00000   0.00000   0.00000   2.64802
   D17       -3.10195   0.00000   0.00000   0.00000   0.00000  -3.10196
   D18        0.01650   0.00000   0.00000   0.00000   0.00000   0.01650
   D19        3.10195   0.00000   0.00000   0.00000   0.00000   3.10196
   D20       -0.01650   0.00000   0.00000   0.00000   0.00000  -0.01650
   D21       -1.55041   0.00000   0.00000   0.00000   0.00000  -1.55041
   D22        1.53543   0.00000   0.00000   0.00000   0.00000   1.53543
   D23        3.13411   0.00000   0.00000   0.00000   0.00000   3.13411
   D24       -0.00748   0.00000   0.00000   0.00000   0.00000  -0.00748
   D25       -0.01474   0.00000   0.00000   0.00000   0.00000  -0.01475
   D26        0.00748   0.00000   0.00000   0.00000   0.00000   0.00748
   D27        1.55041   0.00000   0.00000   0.00000   0.00000   1.55041
   D28       -1.53543   0.00000   0.00000   0.00000   0.00000  -1.53543
   D29       -3.13411   0.00000   0.00000   0.00000   0.00000  -3.13411
   D30        0.01474   0.00000   0.00000   0.00000   0.00000   0.01475
   D31        1.53560   0.00000   0.00000   0.00000   0.00000   1.53560
   D32        3.13400   0.00000   0.00000   0.00000   0.00000   3.13400
   D33       -0.00759   0.00000   0.00000   0.00000   0.00000  -0.00759
   D34       -1.55078   0.00000   0.00000   0.00000   0.00000  -1.55078
   D35       -1.55078   0.00000   0.00000   0.00000   0.00000  -1.55078
   D36        3.13400   0.00000   0.00000   0.00000   0.00000   3.13400
   D37       -0.00759   0.00000   0.00000   0.00000   0.00000  -0.00759
   D38        1.53560   0.00000   0.00000   0.00000   0.00000   1.53560
   D39        0.01650   0.00000   0.00000   0.00000   0.00000   0.01650
   D40       -3.10195   0.00000   0.00000   0.00000   0.00000  -3.10196
   D41        1.56501   0.00000   0.00000   0.00000   0.00000   1.56501
   D42       -0.00565   0.00000   0.00000   0.00000   0.00000  -0.00565
   D43        3.13594   0.00000   0.00000   0.00000   0.00000   3.13594
   D44       -1.57658   0.00000   0.00000   0.00000   0.00000  -1.57658
   D45       -1.57658   0.00000   0.00000   0.00000   0.00000  -1.57658
   D46        3.13594   0.00000   0.00000   0.00000   0.00000   3.13594
   D47       -0.00565   0.00000   0.00000   0.00000   0.00000  -0.00565
   D48        1.56501   0.00000   0.00000   0.00000   0.00000   1.56501
   D49        1.56501   0.00000   0.00000   0.00000   0.00000   1.56501
   D50       -0.00565   0.00000   0.00000   0.00000   0.00000  -0.00565
   D51       -1.57658   0.00000   0.00000   0.00000   0.00000  -1.57658
   D52        3.13594   0.00000   0.00000   0.00000   0.00000   3.13594
   D53       -1.57658   0.00000   0.00000   0.00000   0.00000  -1.57658
   D54        3.13594   0.00000   0.00000   0.00000   0.00000   3.13594
   D55        1.56501   0.00000   0.00000   0.00000   0.00000   1.56501
   D56       -0.00565   0.00000   0.00000   0.00000   0.00000  -0.00565
   D57        3.14159   0.00000   0.00000   0.00000   0.00000   3.14159
   D58        0.00000   0.00000   0.00000   0.00000   0.00000   0.00000
   D59        0.00000   0.00000   0.00000   0.00000   0.00000   0.00000
   D60        3.14159   0.00000   0.00000   0.00000   0.00000   3.14159
   D61        0.00000   0.00000   0.00000   0.00000   0.00000   0.00000
   D62       -1.57066   0.00000   0.00000   0.00000   0.00000  -1.57066
   D63        3.14159   0.00000   0.00000   0.00000   0.00000   3.14159
   D64        1.57093   0.00000   0.00000   0.00000   0.00000   1.57093
   D65        1.57066   0.00000   0.00000   0.00000   0.00000   1.57066
   D66        0.00000   0.00000   0.00000   0.00000   0.00000   0.00000
   D67       -1.57093   0.00000   0.00000   0.00000   0.00000  -1.57093
   D68        3.14159   0.00000   0.00000   0.00000   0.00000   3.14159
   D69       -1.57093   0.00000   0.00000   0.00000   0.00000  -1.57093
   D70        3.14159   0.00000   0.00000   0.00000   0.00000  -3.14159
   D71        1.57066   0.00000   0.00000   0.00000   0.00000   1.57066
   D72        0.00000   0.00000   0.00000   0.00000   0.00000   0.00000
   D73        3.14159   0.00000   0.00000   0.00000   0.00000   3.14159
   D74        1.57093   0.00000   0.00000   0.00000   0.00000   1.57093
   D75        0.00000   0.00000   0.00000   0.00000   0.00000   0.00000
   D76       -1.57066   0.00000   0.00000   0.00000   0.00000  -1.57066
   D77        1.53543   0.00000   0.00000   0.00000   0.00000   1.53543
   D78       -1.55041   0.00000   0.00000   0.00000   0.00000  -1.55041
   D79        3.13411   0.00000   0.00000   0.00000   0.00000   3.13411
   D80       -0.00748   0.00000   0.00000   0.00000   0.00000  -0.00748
   D81        1.57658   0.00000   0.00000   0.00000   0.00000   1.57658
   D82       -1.56501   0.00000   0.00000   0.00000   0.00000  -1.56501
   D83       -3.13594   0.00000   0.00000   0.00000   0.00000  -3.13594
   D84        0.00565   0.00000   0.00000   0.00000   0.00000   0.00565
   D85        0.00565   0.00000   0.00000   0.00000   0.00000   0.00565
   D86       -3.13594   0.00000   0.00000   0.00000   0.00000  -3.13594
   D87       -1.56501   0.00000   0.00000   0.00000   0.00000  -1.56501
   D88        1.57658   0.00000   0.00000   0.00000   0.00000   1.57658
   D89       -1.53560   0.00000   0.00000   0.00000   0.00000  -1.53560
   D90        0.00759   0.00000   0.00000   0.00000   0.00000   0.00759
   D91        1.55078   0.00000   0.00000   0.00000   0.00000   1.55078
   D92       -3.13400   0.00000   0.00000   0.00000   0.00000  -3.13400
   D93        0.01496   0.00000   0.00000   0.00000   0.00000   0.01496
   D94        0.00748   0.00000   0.00000   0.00000   0.00000   0.00748
   D95       -1.53543   0.00000   0.00000   0.00000   0.00000  -1.53543
   D96        1.55041   0.00000   0.00000   0.00000   0.00000   1.55041
   D97       -3.13411   0.00000   0.00000   0.00000   0.00000  -3.13411
   D98        1.55078   0.00000   0.00000   0.00000   0.00000   1.55078
   D99        0.00759   0.00000   0.00000   0.00000   0.00000   0.00759
   D100      -1.53560   0.00000   0.00000   0.00000   0.00000  -1.53560
   D101      -3.13400   0.00000   0.00000   0.00000   0.00000  -3.13400
   D102       1.57658   0.00000   0.00000   0.00000   0.00000   1.57658
   D103      -1.56501   0.00000   0.00000   0.00000   0.00000  -1.56501
   D104      -3.13594   0.00000   0.00000   0.00000   0.00000  -3.13594
   D105       0.00565   0.00000   0.00000   0.00000   0.00000   0.00565
   D106      -1.56501   0.00000   0.00000   0.00000   0.00000  -1.56501
   D107       1.57658   0.00000   0.00000   0.00000   0.00000   1.57658
   D108       0.00565   0.00000   0.00000   0.00000   0.00000   0.00565
   D109      -3.13594   0.00000   0.00000   0.00000   0.00000  -3.13594
   D110       0.01630   0.00000   0.00000   0.00000   0.00000   0.01630
   D111      -3.10254   0.00000   0.00000   0.00000   0.00000  -3.10255
   D112      -0.01650   0.00000   0.00000   0.00000   0.00000  -0.01650
   D113       3.10195   0.00000   0.00000   0.00000   0.00000   3.10196
   D114       1.56016   0.00000   0.00000   0.00000   0.00000   1.56016
   D115      -0.51485   0.00000   0.00000   0.00000   0.00000  -0.51485
   D116      -2.64802   0.00000   0.00000   0.00000   0.00000  -2.64802
   D117      -1.56016   0.00000   0.00000   0.00000   0.00000  -1.56016
   D118       2.64802   0.00000   0.00000   0.00000   0.00000   2.64802
   D119       0.51485   0.00000   0.00000   0.00000   0.00000   0.51485
   D120      -0.01630   0.00000   0.00000   0.00000   0.00000  -0.01630
   D121       3.10254   0.00000   0.00000   0.00000   0.00000   3.10255
   D122       1.56036   0.00000   0.00000   0.00000   0.00000   1.56036
   D123      -0.51382   0.00000   0.00000   0.00000   0.00000  -0.51381
   D124      -2.64866   0.00000   0.00000   0.00000   0.00000  -2.64865
   D125      -1.56036   0.00000   0.00000   0.00000   0.00000  -1.56036
   D126       2.64866   0.00000   0.00000   0.00000   0.00000   2.64865
   D127       0.51382   0.00000   0.00000   0.00000   0.00000   0.51381
         Item               Value     Threshold  Converged?
 Maximum Force            0.000000     0.000002     YES
 RMS     Force            0.000000     0.000001     YES
 Maximum Displacement     0.000008     0.000006     NO 
 RMS     Displacement     0.000001     0.000004     YES
 Predicted change in Energy=-7.906654D-12
 GradGradGradGradGradGradGradGradGradGradGradGradGradGradGradGradGradGrad

                          Input orientation:                          
 ---------------------------------------------------------------------
 Center     Atomic      Atomic             Coordinates (Angstroms)
 Number     Number       Type             X           Y           Z
 ---------------------------------------------------------------------
      1          6           0       -0.008637    2.679440    0.000000
      2          6           0       -0.061034    4.197798    0.000000
      3          6           0        2.680261    0.009119    0.000000
      4          6           0        4.198269    0.062469    0.000000
      5          1           0       -1.116771    4.528241    0.000000
      6          1           0        0.424670    4.593394    0.906235
      7          1           0        0.424670    4.593394   -0.906235
      8          1           0        4.528290    1.118330    0.000000
      9          1           0        4.594794   -0.423607    0.905619
     10          1           0        4.594794   -0.423607   -0.905619
     11          8           0       -0.000020    2.076379   -1.167755
     12          8           0       -0.000020    2.076379    1.167755
     13          8           0        2.075820    0.000301   -1.167207
     14          8           0       -2.075820   -0.000301   -1.167207
     15          8           0        0.000000    0.000000   -3.500195
     16         45           0        0.000000    0.000000   -1.225110
     17         45           0        0.000000    0.000000    1.225110
     18          8           0        0.000020   -2.076379   -1.167755
     19          8           0        2.075820    0.000301    1.167207
     20          6           0       -2.680261   -0.009119    0.000000
     21          8           0        0.000020   -2.076379    1.167755
     22          8           0       -2.075820   -0.000301    1.167207
     23          8           0        0.000000    0.000000    3.500195
     24          6           0        0.008637   -2.679440    0.000000
     25          6           0       -4.198269   -0.062469    0.000000
     26          6           0        0.061034   -4.197798    0.000000
     27          1           0        1.116771   -4.528241    0.000000
     28          1           0       -0.424670   -4.593394   -0.906235
     29          1           0       -0.424670   -4.593394    0.906235
     30          1           0       -4.528290   -1.118330    0.000000
     31          1           0       -4.594794    0.423607   -0.905619
     32          1           0       -4.594794    0.423607    0.905619
     33          1           0       -0.821551   -0.004763    4.037344
     34          1           0        0.821551    0.004763    4.037344
     35          1           0        0.821551    0.004763   -4.037344
     36          1           0       -0.821551   -0.004763   -4.037344
 ---------------------------------------------------------------------
                    Distance matrix (angstroms):
                    1          2          3          4          5
     1  C    0.000000
     2  C    1.519262   0.000000
     3  C    3.789563   5.005970   0.000000
     4  C    4.954452   5.936548   1.518945   0.000000
     5  H    2.155465   1.106243   5.902535   6.942101   0.000000
     6  H    2.161535   1.101665   5.188885   5.965785   1.789287
     7  H    2.161535   1.101665   5.188885   5.965785   1.789287
     8  H    4.797996   5.526755   2.155356   1.106235   6.595014
     9  H    5.624999   6.622255   2.161673   1.101656   7.613338
    10  H    5.624999   6.622255   2.161673   1.101656   7.613338
    11  O    1.314310   2.422353   3.580660   4.800533   2.936395
    12  O    1.314310   2.422353   3.580660   4.800533   2.936395
    13  O    3.589585   4.852577   1.314458   2.423021   5.661913
    14  O    3.580032   4.800601   4.897221   6.382046   4.773871
    15  O    4.408043   5.465949   4.408543   5.466327   5.831253
    16  Rh   2.946246   4.373343   2.946995   4.373815   4.822141
    17  Rh   2.946246   4.373343   2.946995   4.373815   4.822141
    18  O    4.897095   6.382216   3.591190   4.854238   6.799403
    19  O    3.589585   4.852577   1.314458   2.423021   5.661913
    20  C    3.790241   4.955654   5.360554   6.878903   4.799181
    21  O    4.897095   6.382216   3.591190   4.854238   6.799403
    22  O    3.580032   4.800601   4.897221   6.382046   4.773871
    23  O    4.408043   5.465949   4.408543   5.466327   5.831253
    24  C    5.358908   6.877591   3.790241   5.007104   7.295013
    25  C    5.007104   5.938568   6.878903   8.397468   5.529037
    26  C    6.877591   8.396483   4.955654   5.938568   8.805168
    27  H    7.295013   8.805168   4.799181   5.529037   9.327839
    28  H    7.340876   8.845256   5.625388   6.623435   9.192633
    29  H    7.340876   8.845256   5.625388   6.623435   9.192633
    30  H    5.903417   6.943889   7.296188   8.806085   6.597138
    31  H    5.190546   5.968220   7.342913   8.846950   5.455714
    32  H    5.190546   5.968220   7.342913   8.846950   5.455714
    33  H    4.915885   5.877079   5.344439   6.442302   6.077453
    34  H    4.913578   5.887329   4.444657   5.263621   6.365461
    35  H    4.913578   5.887329   4.444657   5.263621   6.365461
    36  H    4.915885   5.877079   5.344439   6.442302   6.077453
                    6          7          8          9         10
     6  H    0.000000
     7  H    1.812469   0.000000
     8  H    5.453167   5.453167   0.000000
     9  H    6.523820   6.770749   1.789452   0.000000
    10  H    6.770749   6.523820   1.789452   1.811237   0.000000
    11  O    3.288945   2.565954   4.773584   5.626822   5.237457
    12  O    2.565954   3.288945   4.773584   5.237457   5.626822
    13  O    5.303015   4.887833   2.937171   3.289610   2.567753
    14  O    5.626157   5.236658   6.799116   6.998063   6.689148
    15  O    6.379360   5.292282   5.831590   6.379872   5.293714
    16  Rh   5.081559   4.623991   4.822548   5.082478   4.625327
    17  Rh   4.623991   5.081559   4.822548   4.625327   5.082478
    18  O    6.997688   6.688392   5.663484   5.304949   4.890023
    19  O    4.887833   5.303015   2.937171   2.567753   3.289610
    20  C    5.625388   5.625388   7.296188   7.342913   7.342913
    21  O    6.688392   6.997688   5.663484   4.890023   5.304949
    22  O    5.236658   5.626157   6.799116   6.689148   6.998063
    23  O    5.292282   6.379360   5.831590   5.293714   6.379872
    24  C    7.340876   7.340876   5.903417   5.190546   5.190546
    25  C    6.623435   6.623435   8.806085   8.846950   8.846950
    26  C    8.845256   8.845256   6.943889   5.968220   5.968220
    27  H    9.192633   9.192633   6.597138   5.455714   5.455714
    28  H    9.402313   9.225966   7.614254   6.772367   6.525500
    29  H    9.225966   9.402313   7.614254   6.525500   6.772367
    30  H    7.614254   7.614254   9.328682   9.194208   9.194208
    31  H    6.772367   6.525500   9.194208   9.404620   9.228559
    32  H    6.525500   6.772367   9.194208   9.228559   9.404620
    33  H    5.700874   6.865500   6.795755   6.270560   7.344733
    34  H    5.569281   6.756628   5.592861   4.922253   6.233277
    35  H    6.756628   5.569281   5.592861   6.233277   4.922253
    36  H    6.865500   5.700874   6.795755   7.344733   6.270560
                   11         12         13         14         15
    11  O    0.000000
    12  O    2.335511   0.000000
    13  O    2.935849   3.751168   0.000000
    14  O    2.936247   3.751479   4.151640   0.000000
    15  O    3.122759   5.108925   3.122797   3.122797   0.000000
    16  Rh   2.077171   3.168147   2.076627   2.076627   2.275085
    17  Rh   3.168147   2.077171   3.167367   3.167367   4.725305
    18  O    4.152758   4.764453   2.936247   2.935849   3.122759
    19  O    3.751168   2.935849   2.334415   4.762941   5.108197
    20  C    3.591190   3.591190   4.897221   1.314458   4.408543
    21  O    4.764453   4.152758   3.751479   3.751168   5.108925
    22  O    3.751479   2.936247   4.762941   2.334415   5.108197
    23  O    5.108925   3.122759   5.108197   5.108197   7.000391
    24  C    4.897095   4.897095   3.580032   3.589585   4.408043
    25  C    4.854238   4.854238   6.382046   2.423021   5.466327
    26  C    6.382216   6.382216   4.800601   4.852577   5.465949
    27  H    6.799403   6.799403   4.773871   5.661913   5.831253
    28  H    6.688392   6.997688   5.236658   4.887833   5.292282
    29  H    6.997688   6.688392   5.626157   5.303015   6.379360
    30  H    5.663484   5.663484   6.799116   2.937171   5.831590
    31  H    4.890023   5.304949   6.689148   2.567753   5.293714
    32  H    5.304949   4.890023   6.998063   3.289610   6.379872
    33  H    5.665609   3.638764   5.956689   5.353557   7.582181
    34  H    5.662122   3.633333   5.353557   5.956689   7.582181
    35  H    3.633333   5.662122   3.132235   4.078292   0.981579
    36  H    3.638764   5.665609   4.078292   3.132235   0.981579
                   16         17         18         19         20
    16  Rh   0.000000
    17  Rh   2.450220   0.000000
    18  O    2.077171   3.168147   0.000000
    19  O    3.167367   2.076627   3.751479   0.000000
    20  C    2.946995   2.946995   3.580660   4.897221   0.000000
    21  O    3.168147   2.077171   2.335511   2.936247   3.580660
    22  O    3.167367   2.076627   3.751168   4.151640   1.314458
    23  O    4.725305   2.275085   5.108925   3.122797   4.408543
    24  C    2.946246   2.946246   1.314310   3.580032   3.789563
    25  C    4.373815   4.373815   4.800533   6.382046   1.518945
    26  C    4.373343   4.373343   2.422353   4.800601   5.005970
    27  H    4.822141   4.822141   2.936395   4.773871   5.902535
    28  H    4.623991   5.081559   2.565954   5.626157   5.188885
    29  H    5.081559   4.623991   3.288945   5.236658   5.188885
    30  H    4.822548   4.822548   4.773584   6.799116   2.155356
    31  H    4.625327   5.082478   5.237457   6.998063   2.161673
    32  H    5.082478   4.625327   5.626822   6.689148   2.161673
    33  H    5.326199   2.929783   5.662122   4.078292   4.444657
    34  H    5.326199   2.929783   5.665609   3.132235   5.344439
    35  H    2.929783   5.326199   3.638764   5.353557   5.344439
    36  H    2.929783   5.326199   3.633333   5.956689   4.444657
                   21         22         23         24         25
    21  O    0.000000
    22  O    2.935849   0.000000
    23  O    3.122759   3.122797   0.000000
    24  C    1.314310   3.589585   4.408043   0.000000
    25  C    4.800533   2.423021   5.466327   4.954452   0.000000
    26  C    2.422353   4.852577   5.465949   1.519262   5.936548
    27  H    2.936395   5.661913   5.831253   2.155465   6.942101
    28  H    3.288945   5.303015   6.379360   2.161535   5.965785
    29  H    2.565954   4.887833   5.292282   2.161535   5.965785
    30  H    4.773584   2.937171   5.831590   4.797996   1.106235
    31  H    5.626822   3.289610   6.379872   5.624999   1.101656
    32  H    5.237457   2.567753   5.293714   5.624999   1.101656
    33  H    3.633333   3.132235   0.981579   4.913578   5.263621
    34  H    3.638764   4.078292   0.981579   4.915885   6.442302
    35  H    5.665609   5.956689   7.582181   4.915885   6.442302
    36  H    5.662122   5.353557   7.582181   4.913578   5.263621
                   26         27         28         29         30
    26  C    0.000000
    27  H    1.106243   0.000000
    28  H    1.101665   1.789287   0.000000
    29  H    1.101665   1.789287   1.812469   0.000000
    30  H    5.526755   6.595014   5.453167   5.453167   0.000000
    31  H    6.622255   7.613338   6.523820   6.770749   1.789452
    32  H    6.622255   7.613338   6.770749   6.523820   1.789452
    33  H    5.887329   6.365461   6.756628   5.569281   5.592861
    34  H    5.877079   6.077453   6.865500   5.700874   6.795755
    35  H    5.877079   6.077453   5.700874   6.865500   6.795755
    36  H    5.887329   6.365461   5.569281   6.756628   5.592861
                   31         32         33         34         35
    31  H    0.000000
    32  H    1.811237   0.000000
    33  H    6.233277   4.922253   0.000000
    34  H    7.344733   6.270560   1.643129   0.000000
    35  H    6.270560   7.344733   8.240174   8.074688   0.000000
    36  H    4.922253   6.233277   8.074688   8.240174   1.643129
                   36
    36  H    0.000000
 Stoichiometry    C8H16O10Rh2
 Framework group  C2H[C2(ORh.RhO),SGH(C8H4),X(H12O8)]
 Deg. of freedom    28
 Full point group                 C2H     NOp   4
 Largest Abelian subgroup         C2H     NOp   4
 Largest concise Abelian subgroup C2H     NOp   4
                         Standard orientation:                         
 ---------------------------------------------------------------------
 Center     Atomic      Atomic             Coordinates (Angstroms)
 Number     Number       Type             X           Y           Z
 ---------------------------------------------------------------------
      1          6           0       -0.008611    2.679440    0.000000
      2          6           0       -0.060994    4.197799    0.000000
      3          6           0        2.680261    0.009093    0.000000
      4          6           0        4.198270    0.062429    0.000000
      5          1           0       -1.116728    4.528252    0.000000
      6          1           0        0.424714    4.593390    0.906235
      7          1           0        0.424714    4.593390   -0.906235
      8          1           0        4.528301    1.118287    0.000000
      9          1           0        4.594790   -0.423650    0.905619
     10          1           0        4.594790   -0.423650   -0.905619
     11          8           0        0.000000    2.076379   -1.167755
     12          8           0        0.000000    2.076379    1.167755
     13          8           0        2.075820    0.000281   -1.167207
     14          8           0       -2.075820   -0.000281   -1.167207
     15          8           0        0.000000    0.000000   -3.500195
     16         45           0        0.000000    0.000000   -1.225110
     17         45           0        0.000000    0.000000    1.225110
     18          8           0        0.000000   -2.076379   -1.167755
     19          8           0        2.075820    0.000281    1.167207
     20          6           0       -2.680261   -0.009093    0.000000
     21          8           0        0.000000   -2.076379    1.167755
     22          8           0       -2.075820   -0.000281    1.167207
     23          8           0        0.000000    0.000000    3.500195
     24          6           0        0.008611   -2.679440    0.000000
     25          6           0       -4.198270   -0.062429    0.000000
     26          6           0        0.060994   -4.197799    0.000000
     27          1           0        1.116728   -4.528252    0.000000
     28          1           0       -0.424714   -4.593390   -0.906235
     29          1           0       -0.424714   -4.593390    0.906235
     30          1           0       -4.528301   -1.118287    0.000000
     31          1           0       -4.594790    0.423650   -0.905619
     32          1           0       -4.594790    0.423650    0.905619
     33          1           0       -0.821551   -0.004756    4.037344
     34          1           0        0.821551    0.004756    4.037344
     35          1           0        0.821551    0.004756   -4.037344
     36          1           0       -0.821551   -0.004756   -4.037344
 ---------------------------------------------------------------------
 Rotational constants (GHZ):      0.2593921      0.2590111      0.2521354
 Standard basis: LANL2DZ (5D, 7F)
 There are    73 symmetry adapted basis functions of AG  symmetry.
 There are    46 symmetry adapted basis functions of BG  symmetry.
 There are    49 symmetry adapted basis functions of AU  symmetry.
 There are    70 symmetry adapted basis functions of BU  symmetry.
 Integral buffers will be    131072 words long.
 Raffenetti 2 integral format.
 Two-electron integral symmetry is turned on.
   238 basis functions,   612 primitive gaussians,   242 cartesian basis functions
    89 alpha electrons       89 beta electrons
       nuclear repulsion energy      2357.7433991113 Hartrees.
 NAtoms=   36 NActive=   36 NUniq=   13 SFac= 3.00D+00 NAtFMM=   80 NAOKFM=F Big=F
 One-electron integrals computed using PRISM.
   4 Symmetry operations used in ECPInt.
 ECPInt:  NShTT=    9591 NPrTT=   68474 LenC2=    9087 LenP2D=   38378.
 LDataN:  DoStor=T MaxTD1= 5 Len=  102
 NBasis=   238 RedAO= T  NBF=    73    46    49    70
 NBsUse=   238 1.00D-06 NBFU=    73    46    49    70
 Defaulting to unpruned grid for atomic number  45.
 Initial guess read from the read-write file.
 B after Tr=     0.000000    0.000000    0.000000
         Rot=    1.000000    0.000000    0.000000    0.000000 Ang=   0.00 deg.
 Initial guess orbital symmetries:
       Occupied  (AU) (AG) (AG) (AU) (BG) (BU) (AG) (AU) (BG) (BU)
                 (AG) (BU) (AG) (BU) (BU) (AG) (BU) (AG) (AG) (AU)
                 (BU) (BU) (BG) (BG) (AG) (AU) (AG) (BU) (AG) (BU)
                 (AU) (AG) (AU) (BG) (AU) (BG) (AG) (BU) (AG) (BU)
                 (BU) (BG) (AG) (AG) (BU) (BU) (AU) (AU) (BG) (BG)
                 (AG) (BU) (BU) (AG) (BU) (BU) (AG) (AG) (AG) (AU)
                 (AU) (BG) (AU) (BG) (AG) (BU) (BU) (AG) (AG) (AU)
                 (AG) (BU) (BG) (BU) (AU) (BU) (BG) (AU) (BG) (BG)
                 (BG) (AU) (AG) (BU) (BU) (AG) (AU) (BG) (BG)
       Virtual   (AU) (AU) (AG) (BU) (BU) (AG) (AG) (AU) (AG) (BU)
                 (BU) (BG) (AG) (BG) (BU) (AG) (AU) (AG) (BG) (BU)
                 (BU) (AG) (AG) (AU) (AG) (BU) (BU) (BG) (BG) (AU)
                 (AG) (BU) (AG) (BU) (AU) (AG) (BU) (BU) (AG) (AG)
                 (AU) (BG) (AG) (AU) (BG) (AG) (BU) (BU) (AG) (BU)
                 (BU) (BG) (AU) (BG) (AU) (BU) (BG) (BU) (BG) (AG)
                 (AU) (BU) (AG) (BU) (AG) (BG) (BG) (AU) (BU) (BU)
                 (AG) (AG) (AU) (AG) (AU) (AG) (AU) (BU) (BG) (BU)
                 (AG) (BG) (BU) (AU) (AG) (AU) (BU) (BU) (BG) (AG)
                 (AU) (BU) (BG) (AG) (AU) (BG) (AG) (BU) (BG) (BU)
                 (BU) (AG) (AU) (BU) (AG) (BG) (BG) (AU) (AG) (BU)
                 (AG) (BG) (AG) (AG) (AG) (BU) (BU) (AG) (AU) (AU)
                 (BU) (BG) (BU) (AG) (BG) (AG) (AU) (BG) (BU) (AU)
                 (AU) (BU) (AG) (BG) (BU) (BU) (AG) (AG) (AU) (BU)
                 (BU) (AU) (BG) (BG) (AG) (AU) (AG) (AU) (AG)
 Requested convergence on RMS density matrix=1.00D-08 within 128 cycles.
 Requested convergence on MAX density matrix=1.00D-06.
 Requested convergence on             energy=1.00D-06.
 No special actions if energy rises.
 Defaulting to unpruned grid for atomic number  45.
 Defaulting to unpruned grid for atomic number  45.
 Defaulting to unpruned grid for atomic number  45.
 Defaulting to unpruned grid for atomic number  45.
 Defaulting to unpruned grid for atomic number  45.
 Defaulting to unpruned grid for atomic number  45.
 SCF Done:  E(RB-P86) =  -1286.10632675     A.U. after    4 cycles
             Convg  =    0.1729D-08             -V/T =  2.1306
   4 Symmetry operations used in ECPInt.
 ECPInt:  NShTT=    9591 NPrTT=   68474 LenC2=    9087 LenP2D=   38378.
 LDataN:  DoStor=T MaxTD1= 6 Len=  172
 Calling FoFJK, ICntrl=      2527 FMM=F ISym2X=1 I1Cent= 0 IOpClX= 0 NMat=1 NMatS=1 NMatT=0.
 Defaulting to unpruned grid for atomic number  45.
 Defaulting to unpruned grid for atomic number  45.
 Defaulting to unpruned grid for atomic number  45.
 Defaulting to unpruned grid for atomic number  45.
 Defaulting to unpruned grid for atomic number  45.
 Defaulting to unpruned grid for atomic number  45.
 ***** Axes restored to original set *****
 -------------------------------------------------------------------
 Center     Atomic                   Forces (Hartrees/Bohr)
 Number     Number              X              Y              Z
 -------------------------------------------------------------------
      1        6           0.000000222    0.000000013    0.000000000
      2        6          -0.000000067   -0.000000012    0.000000000
      3        6          -0.000000104   -0.000000157    0.000000000
      4        6          -0.000000071   -0.000000038    0.000000000
      5        1           0.000000069    0.000000043    0.000000000
      6        1           0.000000073   -0.000000005    0.000000025
      7        1           0.000000073   -0.000000005   -0.000000025
      8        1           0.000000069   -0.000000006    0.000000000
      9        1           0.000000019   -0.000000072    0.000000046
     10        1           0.000000019   -0.000000072   -0.000000046
     11        8          -0.000000021   -0.000000007   -0.000000092
     12        8          -0.000000021   -0.000000007    0.000000092
     13        8           0.000000043    0.000000025    0.000000104
     14        8          -0.000000043   -0.000000025    0.000000104
     15        8           0.000000000    0.000000000   -0.000000045
     16       45           0.000000000    0.000000000   -0.000000018
     17       45           0.000000000    0.000000000    0.000000018
     18        8           0.000000021    0.000000007   -0.000000092
     19        8           0.000000043    0.000000025   -0.000000104
     20        6           0.000000104    0.000000157    0.000000000
     21        8           0.000000021    0.000000007    0.000000092
     22        8          -0.000000043   -0.000000025   -0.000000104
     23        8           0.000000000    0.000000000    0.000000045
     24        6          -0.000000222   -0.000000013    0.000000000
     25        6           0.000000071    0.000000038    0.000000000
     26        6           0.000000067    0.000000012    0.000000000
     27        1          -0.000000069   -0.000000043    0.000000000
     28        1          -0.000000073    0.000000005   -0.000000025
     29        1          -0.000000073    0.000000005    0.000000025
     30        1          -0.000000069    0.000000006    0.000000000
     31        1          -0.000000019    0.000000072   -0.000000046
     32        1          -0.000000019    0.000000072    0.000000046
     33        1          -0.000000005    0.000000012   -0.000000026
     34        1           0.000000005   -0.000000012   -0.000000026
     35        1           0.000000005   -0.000000012    0.000000026
     36        1          -0.000000005    0.000000012    0.000000026
 -------------------------------------------------------------------
 Cartesian Forces:  Max     0.000000222 RMS     0.000000058

 GradGradGradGradGradGradGradGradGradGradGradGradGradGradGradGradGradGrad
 Berny optimization.
 Using GEDIIS/GDIIS optimizer.
 Internal  Forces:  Max     0.000000088 RMS     0.000000023
 Search for a local minimum.
 Step number   4 out of a maximum of  216
 All quantities printed in internal units (Hartrees-Bohrs-Radians)
 Mixed Optimization -- En-DIIS/RFO-DIIS
 Swaping is turned off.
 Update second derivatives using D2CorX and points    1    2    4
 DE=  3.14D-11 DEPred=-7.91D-12 R=-3.97D+00
 Trust test=-3.97D+00 RLast= 2.17D-05 DXMaxT set to 1.50D-01
     Eigenvalues ---    0.00226   0.00230   0.00230   0.00230   0.00397
     Eigenvalues ---    0.00511   0.00511   0.00515   0.00515   0.01158
     Eigenvalues ---    0.01262   0.01264   0.01393   0.01734   0.01738
     Eigenvalues ---    0.01860   0.02251   0.02254   0.02385   0.02627
     Eigenvalues ---    0.03052   0.05176   0.05176   0.07206   0.07207
     Eigenvalues ---    0.07208   0.07222   0.07421   0.07421   0.07426
     Eigenvalues ---    0.07426   0.09377   0.09378   0.10017   0.10020
     Eigenvalues ---    0.11449   0.13186   0.13652   0.13672   0.14817
     Eigenvalues ---    0.14818   0.14838   0.14839   0.14898   0.15297
     Eigenvalues ---    0.15482   0.15999   0.16000   0.16000   0.16000
     Eigenvalues ---    0.16000   0.16000   0.16000   0.16000   0.16000
     Eigenvalues ---    0.16000   0.16000   0.16000   0.16000   0.16006
     Eigenvalues ---    0.16028   0.16254   0.17475   0.17489   0.18567
     Eigenvalues ---    0.18572   0.24194   0.24303   0.24307   0.24511
     Eigenvalues ---    0.24997   0.24997   0.24997   0.24997   0.30438
     Eigenvalues ---    0.30461   0.30468   0.30566   0.33001   0.33002
     Eigenvalues ---    0.33009   0.33228   0.33499   0.33499   0.33499
     Eigenvalues ---    0.33499   0.33500   0.33500   0.33500   0.36325
     Eigenvalues ---    0.51079   0.51079   0.51079   0.51083   0.56741
     Eigenvalues ---    0.56921   0.57319   0.58799   0.62151   0.62194
     Eigenvalues ---    0.62249   0.622821000.000001000.000001000.00000
     Eigenvalues --- 1000.000001000.000001000.000001000.000001000.00000
     Eigenvalues --- 1000.000001000.000001000.000001000.000001000.00000
     Eigenvalues --- 1000.000001000.000001000.000001000.000001000.00000
     Eigenvalues --- 1000.000001000.000001000.000001000.000001000.00000
     Eigenvalues --- 1000.000001000.000001000.000001000.000001000.00000
     Eigenvalues --- 1000.000001000.000001000.000001000.000001000.00000
     Eigenvalues --- 1000.000001000.000001000.000001000.000001000.00000
     Eigenvalues --- 1000.000001000.000001000.000001000.000001000.00000
     Eigenvalues --- 1000.000001000.000001000.000001000.000001000.00000
     Eigenvalues --- 1000.000001000.000001000.000001000.000001000.00000
     Eigenvalues --- 1000.000001000.000001000.000001000.000001000.00000
     Eigenvalues --- 1000.000001000.000001000.000001000.000001000.00000
     Eigenvalues --- 1000.000001000.000001000.000001000.000001000.00000
     Eigenvalues --- 1000.000001000.000001000.000001000.000001000.00000
     Eigenvalues --- 1000.000001000.000001000.000001000.000001000.00000
     Eigenvalues --- 1000.000001000.000001000.000001000.000001000.00000
     Eigenvalues --- 1000.000001000.000001000.000001000.000001000.00000
     Eigenvalues --- 1000.000001000.000001000.000001000.000001000.00000
     Eigenvalues --- 1000.000001000.000001000.000001000.000001000.00000
     Eigenvalues --- 1000.000001000.000001000.000001000.000001000.00000
     Eigenvalues --- 1000.000001000.000001000.000001000.000001000.00000
     Eigenvalues --- 1000.000001000.000001000.000001000.000001000.00000
     Eigenvalues --- 1000.000001000.000001000.000001000.000001000.00000
     Eigenvalues --- 1000.000001000.000001000.000001000.000001000.00000
     Eigenvalues --- 1000.000001000.000001000.000001000.000001000.00000
     Eigenvalues --- 1000.000001000.000001000.000001000.000001000.00000
     Eigenvalues --- 1000.000001000.000001000.000001000.000001000.00000
 En-DIIS/RFO-DIIS IScMMF=        0 using points:     4    3    2    1
 RFO step:  Lambda= 0.00000000D+00.
 DIIS coeffs:      0.99365      0.09059     -0.30053      0.21630
 Iteration  1 RMS(Cart)=  0.00000025 RMS(Int)=  0.00000000
 ClnCor:  largest displacement from symmetrization is 2.51D-08 for atom    31.
 Variable       Old X    -DE/DX   Delta X   Delta X   Delta X     New X
                                  (DIIS)     (GDIIS)  (Total)
    R1        2.87099   0.00000   0.00000   0.00000   0.00000   2.87099
    R2        2.48369   0.00000   0.00000   0.00000   0.00000   2.48369
    R3        2.48369   0.00000   0.00000   0.00000   0.00000   2.48369
    R4        2.09050   0.00000   0.00000   0.00000   0.00000   2.09050
    R5        2.08185   0.00000   0.00000   0.00000   0.00000   2.08185
    R6        2.08185   0.00000   0.00000   0.00000   0.00000   2.08185
    R7        2.87039   0.00000   0.00000   0.00000   0.00000   2.87039
    R8        2.48397   0.00000   0.00000   0.00000   0.00000   2.48397
    R9        2.48397   0.00000   0.00000   0.00000   0.00000   2.48397
   R10        2.09048   0.00000   0.00000   0.00000   0.00000   2.09048
   R11        2.08183   0.00000   0.00000   0.00000   0.00000   2.08183
   R12        2.08183   0.00000   0.00000   0.00000   0.00000   2.08183
   R13        3.92528   0.00000   0.00000   0.00000   0.00000   3.92528
   R14        3.92528   0.00000   0.00000   0.00000   0.00000   3.92528
   R15        3.92426   0.00000   0.00000   0.00000   0.00000   3.92426
   R16        3.92426   0.00000   0.00000   0.00000   0.00000   3.92426
   R17        2.48397   0.00000   0.00000   0.00000   0.00000   2.48397
   R18        4.29929   0.00000   0.00000   0.00000   0.00000   4.29929
   R19        1.85491   0.00000   0.00000   0.00000   0.00000   1.85491
   R20        1.85491   0.00000   0.00000   0.00000   0.00000   1.85491
   R21        4.63024   0.00000   0.00000   0.00000   0.00000   4.63024
   R22        3.92528   0.00000   0.00000   0.00000   0.00000   3.92528
   R23        3.92426   0.00000   0.00000   0.00000   0.00000   3.92426
   R24        3.92528   0.00000   0.00000   0.00000   0.00000   3.92528
   R25        3.92426   0.00000   0.00000   0.00000   0.00000   3.92426
   R26        4.29929   0.00000   0.00000   0.00000   0.00000   4.29929
   R27        2.48369   0.00000   0.00000   0.00000   0.00000   2.48369
   R28        2.48397   0.00000   0.00000   0.00000   0.00000   2.48397
   R29        2.87039   0.00000   0.00000   0.00000   0.00000   2.87039
   R30        2.48369   0.00000   0.00000   0.00000   0.00000   2.48369
   R31        1.85491   0.00000   0.00000   0.00000   0.00000   1.85491
   R32        1.85491   0.00000   0.00000   0.00000   0.00000   1.85491
   R33        2.87099   0.00000   0.00000   0.00000   0.00000   2.87099
   R34        2.09048   0.00000   0.00000   0.00000   0.00000   2.09048
   R35        2.08183   0.00000   0.00000   0.00000   0.00000   2.08183
   R36        2.08183   0.00000   0.00000   0.00000   0.00000   2.08183
   R37        2.09050   0.00000   0.00000   0.00000   0.00000   2.09050
   R38        2.08185   0.00000   0.00000   0.00000   0.00000   2.08185
   R39        2.08185   0.00000   0.00000   0.00000   0.00000   2.08185
    A1        2.04744   0.00000   0.00000   0.00000   0.00000   2.04744
    A2        2.04744   0.00000   0.00000   0.00000   0.00000   2.04744
    A3        2.18810   0.00000   0.00000   0.00000   0.00000   2.18810
    A4        1.90863   0.00000   0.00000   0.00000   0.00000   1.90863
    A5        1.92162   0.00000   0.00000   0.00000   0.00000   1.92162
    A6        1.92162   0.00000   0.00000   0.00000   0.00000   1.92162
    A7        1.88966   0.00000   0.00000   0.00000   0.00000   1.88966
    A8        1.88966   0.00000   0.00000   0.00000   0.00000   1.88966
    A9        1.93195   0.00000   0.00000   0.00000   0.00000   1.93195
   A10        2.04856   0.00000   0.00000   0.00000   0.00000   2.04856
   A11        2.04856   0.00000   0.00000   0.00000   0.00000   2.04856
   A12        2.18585   0.00000   0.00000   0.00000   0.00000   2.18585
   A13        1.90887   0.00000   0.00000   0.00000   0.00000   1.90887
   A14        1.92220   0.00000   0.00000   0.00000   0.00000   1.92220
   A15        1.92220   0.00000   0.00000   0.00000   0.00000   1.92220
   A16        1.88994   0.00000   0.00000   0.00000   0.00000   1.88994
   A17        1.88994   0.00000   0.00000   0.00000   0.00000   1.88994
   A18        1.93001   0.00000   0.00000   0.00000   0.00000   1.93001
   A19        2.07510   0.00000   0.00000   0.00000   0.00000   2.07510
   A20        2.07510   0.00000   0.00000   0.00000   0.00000   2.07510
   A21        2.07650   0.00000   0.00000   0.00000   0.00000   2.07650
   A22        2.07650   0.00000   0.00000   0.00000   0.00000   2.07650
   A23        2.14985   0.00000   0.00000   0.00000   0.00000   2.14985
   A24        2.14985   0.00000   0.00000   0.00000   0.00000   2.14985
   A25        1.98349   0.00000   0.00000   0.00000   0.00000   1.98349
   A26        1.56989   0.00000   0.00000   0.00000   0.00000   1.56989
   A27        1.57016   0.00000   0.00000   0.00000   0.00000   1.57016
   A28        1.59841   0.00000   0.00000   0.00000   0.00000   1.59841
   A29        1.54318   0.00000   0.00000   0.00000   0.00000   1.54318
   A30        1.59868   0.00000   0.00000   0.00000   0.00000   1.59868
   A31        1.54291   0.00000   0.00000   0.00000   0.00000   1.54291
   A32        1.57016   0.00000   0.00000   0.00000   0.00000   1.57016
   A33        1.59868   0.00000   0.00000   0.00000   0.00000   1.59868
   A34        1.54291   0.00000   0.00000   0.00000   0.00000   1.54291
   A35        1.56989   0.00000   0.00000   0.00000   0.00000   1.56989
   A36        1.59841   0.00000   0.00000   0.00000   0.00000   1.59841
   A37        1.54318   0.00000   0.00000   0.00000   0.00000   1.54318
   A38        1.54318   0.00000   0.00000   0.00000   0.00000   1.54318
   A39        1.56989   0.00000   0.00000   0.00000   0.00000   1.56989
   A40        1.57016   0.00000   0.00000   0.00000   0.00000   1.57016
   A41        1.59841   0.00000   0.00000   0.00000   0.00000   1.59841
   A42        1.54291   0.00000   0.00000   0.00000   0.00000   1.54291
   A43        1.54318   0.00000   0.00000   0.00000   0.00000   1.54318
   A44        1.54291   0.00000   0.00000   0.00000   0.00000   1.54291
   A45        1.57016   0.00000   0.00000   0.00000   0.00000   1.57016
   A46        1.59868   0.00000   0.00000   0.00000   0.00000   1.59868
   A47        1.56989   0.00000   0.00000   0.00000   0.00000   1.56989
   A48        1.59841   0.00000   0.00000   0.00000   0.00000   1.59841
   A49        1.59868   0.00000   0.00000   0.00000   0.00000   1.59868
   A50        2.07510   0.00000   0.00000   0.00000   0.00000   2.07510
   A51        2.07650   0.00000   0.00000   0.00000   0.00000   2.07650
   A52        2.18585   0.00000   0.00000   0.00000   0.00000   2.18585
   A53        2.04856   0.00000   0.00000   0.00000   0.00000   2.04856
   A54        2.04856   0.00000   0.00000   0.00000   0.00000   2.04856
   A55        2.07510   0.00000   0.00000   0.00000   0.00000   2.07510
   A56        2.07650   0.00000   0.00000   0.00000   0.00000   2.07650
   A57        2.14985   0.00000   0.00000   0.00000   0.00000   2.14985
   A58        2.14985   0.00000   0.00000   0.00000   0.00000   2.14985
   A59        1.98349   0.00000   0.00000   0.00000   0.00000   1.98349
   A60        2.18810   0.00000   0.00000   0.00000   0.00000   2.18810
   A61        2.04744   0.00000   0.00000   0.00000   0.00000   2.04744
   A62        2.04744   0.00000   0.00000   0.00000   0.00000   2.04744
   A63        1.90887   0.00000   0.00000   0.00000   0.00000   1.90887
   A64        1.92220   0.00000   0.00000   0.00000   0.00000   1.92220
   A65        1.92220   0.00000   0.00000   0.00000   0.00000   1.92220
   A66        1.88994   0.00000   0.00000   0.00000   0.00000   1.88994
   A67        1.88994   0.00000   0.00000   0.00000   0.00000   1.88994
   A68        1.93001   0.00000   0.00000   0.00000   0.00000   1.93001
   A69        1.90863   0.00000   0.00000   0.00000   0.00000   1.90863
   A70        1.92162   0.00000   0.00000   0.00000   0.00000   1.92162
   A71        1.92162   0.00000   0.00000   0.00000   0.00000   1.92162
   A72        1.88966   0.00000   0.00000   0.00000   0.00000   1.88966
   A73        1.88966   0.00000   0.00000   0.00000   0.00000   1.88966
   A74        1.93195   0.00000   0.00000   0.00000   0.00000   1.93195
    D1        1.56036   0.00000   0.00000   0.00000   0.00000   1.56036
    D2       -2.64865   0.00000   0.00000   0.00000   0.00000  -2.64865
    D3       -0.51381   0.00000   0.00000   0.00000   0.00000  -0.51381
    D4       -1.56036   0.00000   0.00000   0.00000   0.00000  -1.56036
    D5        0.51381   0.00000   0.00000   0.00000   0.00000   0.51381
    D6        2.64865   0.00000   0.00000   0.00000   0.00000   2.64865
    D7       -3.10255   0.00000   0.00000   0.00000   0.00000  -3.10255
    D8        0.01630   0.00000   0.00000   0.00000   0.00000   0.01630
    D9        3.10255   0.00000   0.00000   0.00000   0.00000   3.10255
   D10       -0.01630   0.00000   0.00000   0.00000   0.00000  -0.01630
   D11        1.56016   0.00000   0.00000   0.00000   0.00000   1.56016
   D12       -2.64802   0.00000   0.00000   0.00000   0.00000  -2.64802
   D13       -0.51485   0.00000   0.00000   0.00000   0.00000  -0.51485
   D14       -1.56016   0.00000   0.00000   0.00000   0.00000  -1.56016
   D15        0.51485   0.00000   0.00000   0.00000   0.00000   0.51485
   D16        2.64802   0.00000   0.00000   0.00000   0.00000   2.64802
   D17       -3.10196   0.00000   0.00000   0.00000   0.00000  -3.10196
   D18        0.01650   0.00000   0.00000   0.00000   0.00000   0.01650
   D19        3.10196   0.00000   0.00000   0.00000   0.00000   3.10196
   D20       -0.01650   0.00000   0.00000   0.00000   0.00000  -0.01650
   D21       -1.55041   0.00000   0.00000   0.00000   0.00000  -1.55041
   D22        1.53543   0.00000   0.00000   0.00000   0.00000   1.53543
   D23        3.13411   0.00000   0.00000   0.00000   0.00000   3.13411
   D24       -0.00748   0.00000   0.00000   0.00000   0.00000  -0.00748
   D25       -0.01475   0.00000   0.00000   0.00000   0.00000  -0.01475
   D26        0.00748   0.00000   0.00000   0.00000   0.00000   0.00748
   D27        1.55041   0.00000   0.00000   0.00000   0.00000   1.55041
   D28       -1.53543   0.00000   0.00000   0.00000   0.00000  -1.53543
   D29       -3.13411   0.00000   0.00000   0.00000   0.00000  -3.13411
   D30        0.01475   0.00000   0.00000   0.00000   0.00000   0.01475
   D31        1.53560   0.00000   0.00000   0.00000   0.00000   1.53560
   D32        3.13400   0.00000   0.00000   0.00000   0.00000   3.13400
   D33       -0.00759   0.00000   0.00000   0.00000   0.00000  -0.00759
   D34       -1.55078   0.00000   0.00000   0.00000   0.00000  -1.55078
   D35       -1.55078   0.00000   0.00000   0.00000   0.00000  -1.55078
   D36        3.13400   0.00000   0.00000   0.00000   0.00000   3.13400
   D37       -0.00759   0.00000   0.00000   0.00000   0.00000  -0.00759
   D38        1.53560   0.00000   0.00000   0.00000   0.00000   1.53560
   D39        0.01650   0.00000   0.00000   0.00000   0.00000   0.01650
   D40       -3.10196   0.00000   0.00000   0.00000   0.00000  -3.10196
   D41        1.56501   0.00000   0.00000   0.00000   0.00000   1.56501
   D42       -0.00565   0.00000   0.00000   0.00000   0.00000  -0.00565
   D43        3.13594   0.00000   0.00000   0.00000   0.00000   3.13594
   D44       -1.57658   0.00000   0.00000   0.00000   0.00000  -1.57658
   D45       -1.57658   0.00000   0.00000   0.00000   0.00000  -1.57658
   D46        3.13594   0.00000   0.00000   0.00000   0.00000   3.13594
   D47       -0.00565   0.00000   0.00000   0.00000   0.00000  -0.00565
   D48        1.56501   0.00000   0.00000   0.00000   0.00000   1.56501
   D49        1.56501   0.00000   0.00000   0.00000   0.00000   1.56501
   D50       -0.00565   0.00000   0.00000   0.00000   0.00000  -0.00565
   D51       -1.57658   0.00000   0.00000   0.00000   0.00000  -1.57658
   D52        3.13594   0.00000   0.00000   0.00000   0.00000   3.13594
   D53       -1.57658   0.00000   0.00000   0.00000   0.00000  -1.57658
   D54        3.13594   0.00000   0.00000   0.00000   0.00000   3.13594
   D55        1.56501   0.00000   0.00000   0.00000   0.00000   1.56501
   D56       -0.00565   0.00000   0.00000   0.00000   0.00000  -0.00565
   D57        3.14159   0.00000   0.00000   0.00000   0.00000   3.14159
   D58        0.00000   0.00000   0.00000   0.00000   0.00000   0.00000
   D59        0.00000   0.00000   0.00000   0.00000   0.00000   0.00000
   D60        3.14159   0.00000   0.00000   0.00000   0.00000   3.14159
   D61        0.00000   0.00000   0.00000   0.00000   0.00000   0.00000
   D62       -1.57066   0.00000   0.00000   0.00000   0.00000  -1.57066
   D63        3.14159   0.00000   0.00000   0.00000   0.00000   3.14159
   D64        1.57093   0.00000   0.00000   0.00000   0.00000   1.57093
   D65        1.57066   0.00000   0.00000   0.00000   0.00000   1.57066
   D66        0.00000   0.00000   0.00000   0.00000   0.00000   0.00000
   D67       -1.57093   0.00000   0.00000   0.00000   0.00000  -1.57093
   D68        3.14159   0.00000   0.00000   0.00000   0.00000   3.14159
   D69       -1.57093   0.00000   0.00000   0.00000   0.00000  -1.57093
   D70       -3.14159   0.00000   0.00000   0.00000   0.00000   3.14159
   D71        1.57066   0.00000   0.00000   0.00000   0.00000   1.57066
   D72        0.00000   0.00000   0.00000   0.00000   0.00000   0.00000
   D73        3.14159   0.00000   0.00000   0.00000   0.00000   3.14159
   D74        1.57093   0.00000   0.00000   0.00000   0.00000   1.57093
   D75        0.00000   0.00000   0.00000   0.00000   0.00000   0.00000
   D76       -1.57066   0.00000   0.00000   0.00000   0.00000  -1.57066
   D77        1.53543   0.00000   0.00000   0.00000   0.00000   1.53543
   D78       -1.55041   0.00000   0.00000   0.00000   0.00000  -1.55041
   D79        3.13411   0.00000   0.00000   0.00000   0.00000   3.13411
   D80       -0.00748   0.00000   0.00000   0.00000   0.00000  -0.00748
   D81        1.57658   0.00000   0.00000   0.00000   0.00000   1.57658
   D82       -1.56501   0.00000   0.00000   0.00000   0.00000  -1.56501
   D83       -3.13594   0.00000   0.00000   0.00000   0.00000  -3.13594
   D84        0.00565   0.00000   0.00000   0.00000   0.00000   0.00565
   D85        0.00565   0.00000   0.00000   0.00000   0.00000   0.00565
   D86       -3.13594   0.00000   0.00000   0.00000   0.00000  -3.13594
   D87       -1.56501   0.00000   0.00000   0.00000   0.00000  -1.56501
   D88        1.57658   0.00000   0.00000   0.00000   0.00000   1.57658
   D89       -1.53560   0.00000   0.00000   0.00000   0.00000  -1.53560
   D90        0.00759   0.00000   0.00000   0.00000   0.00000   0.00759
   D91        1.55078   0.00000   0.00000   0.00000   0.00000   1.55078
   D92       -3.13400   0.00000   0.00000   0.00000   0.00000  -3.13400
   D93        0.01496   0.00000   0.00000   0.00000   0.00000   0.01496
   D94        0.00748   0.00000   0.00000   0.00000   0.00000   0.00748
   D95       -1.53543   0.00000   0.00000   0.00000   0.00000  -1.53543
   D96        1.55041   0.00000   0.00000   0.00000   0.00000   1.55041
   D97       -3.13411   0.00000   0.00000   0.00000   0.00000  -3.13411
   D98        1.55078   0.00000   0.00000   0.00000   0.00000   1.55078
   D99        0.00759   0.00000   0.00000   0.00000   0.00000   0.00759
   D100      -1.53560   0.00000   0.00000   0.00000   0.00000  -1.53560
   D101      -3.13400   0.00000   0.00000   0.00000   0.00000  -3.13400
   D102       1.57658   0.00000   0.00000   0.00000   0.00000   1.57658
   D103      -1.56501   0.00000   0.00000   0.00000   0.00000  -1.56501
   D104      -3.13594   0.00000   0.00000   0.00000   0.00000  -3.13594
   D105       0.00565   0.00000   0.00000   0.00000   0.00000   0.00565
   D106      -1.56501   0.00000   0.00000   0.00000   0.00000  -1.56501
   D107       1.57658   0.00000   0.00000   0.00000   0.00000   1.57658
   D108       0.00565   0.00000   0.00000   0.00000   0.00000   0.00565
   D109      -3.13594   0.00000   0.00000   0.00000   0.00000  -3.13594
   D110       0.01630   0.00000   0.00000   0.00000   0.00000   0.01630
   D111      -3.10255   0.00000   0.00000   0.00000   0.00000  -3.10255
   D112      -0.01650   0.00000   0.00000   0.00000   0.00000  -0.01650
   D113       3.10196   0.00000   0.00000   0.00000   0.00000   3.10196
   D114       1.56016   0.00000   0.00000   0.00000   0.00000   1.56016
   D115      -0.51485   0.00000   0.00000   0.00000   0.00000  -0.51485
   D116      -2.64802   0.00000   0.00000   0.00000   0.00000  -2.64802
   D117      -1.56016   0.00000   0.00000   0.00000   0.00000  -1.56016
   D118       2.64802   0.00000   0.00000   0.00000   0.00000   2.64802
   D119       0.51485   0.00000   0.00000   0.00000   0.00000   0.51485
   D120      -0.01630   0.00000   0.00000   0.00000   0.00000  -0.01630
   D121       3.10255   0.00000   0.00000   0.00000   0.00000   3.10255
   D122       1.56036   0.00000   0.00000   0.00000   0.00000   1.56036
   D123      -0.51381   0.00000   0.00000   0.00000   0.00000  -0.51381
   D124      -2.64865   0.00000   0.00000   0.00000   0.00000  -2.64865
   D125      -1.56036   0.00000   0.00000   0.00000   0.00000  -1.56036
   D126       2.64865   0.00000   0.00000   0.00000   0.00000   2.64865
   D127       0.51381   0.00000   0.00000   0.00000   0.00000   0.51381
         Item               Value     Threshold  Converged?
 Maximum Force            0.000000     0.000002     YES
 RMS     Force            0.000000     0.000001     YES
 Maximum Displacement     0.000001     0.000006     YES
 RMS     Displacement     0.000000     0.000004     YES
 Predicted change in Energy=-4.544529D-13
 Optimization completed.
    -- Stationary point found.
                           ----------------------------
                           !   Optimized Parameters   !
                           ! (Angstroms and Degrees)  !
 --------------------------                            --------------------------
 ! Name  Definition              Value          Derivative Info.                !
 --------------------------------------------------------------------------------
 ! R1    R(1,2)                  1.5193         -DE/DX =    0.0                 !
 ! R2    R(1,11)                 1.3143         -DE/DX =    0.0                 !
 ! R3    R(1,12)                 1.3143         -DE/DX =    0.0                 !
 ! R4    R(2,5)                  1.1062         -DE/DX =    0.0                 !
 ! R5    R(2,6)                  1.1017         -DE/DX =    0.0                 !
 ! R6    R(2,7)                  1.1017         -DE/DX =    0.0                 !
 ! R7    R(3,4)                  1.5189         -DE/DX =    0.0                 !
 ! R8    R(3,13)                 1.3145         -DE/DX =    0.0                 !
 ! R9    R(3,19)                 1.3145         -DE/DX =    0.0                 !
 ! R10   R(4,8)                  1.1062         -DE/DX =    0.0                 !
 ! R11   R(4,9)                  1.1017         -DE/DX =    0.0                 !
 ! R12   R(4,10)                 1.1017         -DE/DX =    0.0                 !
 ! R13   R(11,16)                2.0772         -DE/DX =    0.0                 !
 ! R14   R(12,17)                2.0772         -DE/DX =    0.0                 !
 ! R15   R(13,16)                2.0766         -DE/DX =    0.0                 !
 ! R16   R(14,16)                2.0766         -DE/DX =    0.0                 !
 ! R17   R(14,20)                1.3145         -DE/DX =    0.0                 !
 ! R18   R(15,16)                2.2751         -DE/DX =    0.0                 !
 ! R19   R(15,35)                0.9816         -DE/DX =    0.0                 !
 ! R20   R(15,36)                0.9816         -DE/DX =    0.0                 !
 ! R21   R(16,17)                2.4502         -DE/DX =    0.0                 !
 ! R22   R(16,18)                2.0772         -DE/DX =    0.0                 !
 ! R23   R(17,19)                2.0766         -DE/DX =    0.0                 !
 ! R24   R(17,21)                2.0772         -DE/DX =    0.0                 !
 ! R25   R(17,22)                2.0766         -DE/DX =    0.0                 !
 ! R26   R(17,23)                2.2751         -DE/DX =    0.0                 !
 ! R27   R(18,24)                1.3143         -DE/DX =    0.0                 !
 ! R28   R(20,22)                1.3145         -DE/DX =    0.0                 !
 ! R29   R(20,25)                1.5189         -DE/DX =    0.0                 !
 ! R30   R(21,24)                1.3143         -DE/DX =    0.0                 !
 ! R31   R(23,33)                0.9816         -DE/DX =    0.0                 !
 ! R32   R(23,34)                0.9816         -DE/DX =    0.0                 !
 ! R33   R(24,26)                1.5193         -DE/DX =    0.0                 !
 ! R34   R(25,30)                1.1062         -DE/DX =    0.0                 !
 ! R35   R(25,31)                1.1017         -DE/DX =    0.0                 !
 ! R36   R(25,32)                1.1017         -DE/DX =    0.0                 !
 ! R37   R(26,27)                1.1062         -DE/DX =    0.0                 !
 ! R38   R(26,28)                1.1017         -DE/DX =    0.0                 !
 ! R39   R(26,29)                1.1017         -DE/DX =    0.0                 !
 ! A1    A(2,1,11)             117.3094         -DE/DX =    0.0                 !
 ! A2    A(2,1,12)             117.3094         -DE/DX =    0.0                 !
 ! A3    A(11,1,12)            125.3691         -DE/DX =    0.0                 !
 ! A4    A(1,2,5)              109.3564         -DE/DX =    0.0                 !
 ! A5    A(1,2,6)              110.1006         -DE/DX =    0.0                 !
 ! A6    A(1,2,7)              110.1006         -DE/DX =    0.0                 !
 ! A7    A(5,2,6)              108.2697         -DE/DX =    0.0                 !
 ! A8    A(5,2,7)              108.2697         -DE/DX =    0.0                 !
 ! A9    A(6,2,7)              110.6928         -DE/DX =    0.0                 !
 ! A10   A(4,3,13)             117.3737         -DE/DX =    0.0                 !
 ! A11   A(4,3,19)             117.3737         -DE/DX =    0.0                 !
 ! A12   A(13,3,19)            125.24           -DE/DX =    0.0                 !
 ! A13   A(3,4,8)              109.37           -DE/DX =    0.0                 !
 ! A14   A(3,4,9)              110.1339         -DE/DX =    0.0                 !
 ! A15   A(3,4,10)             110.1339         -DE/DX =    0.0                 !
 ! A16   A(8,4,9)              108.2855         -DE/DX =    0.0                 !
 ! A17   A(8,4,10)             108.2855         -DE/DX =    0.0                 !
 ! A18   A(9,4,10)             110.5814         -DE/DX =    0.0                 !
 ! A19   A(1,11,16)            118.8946         -DE/DX =    0.0                 !
 ! A20   A(1,12,17)            118.8946         -DE/DX =    0.0                 !
 ! A21   A(3,13,16)            118.9746         -DE/DX =    0.0                 !
 ! A22   A(16,14,20)           118.9746         -DE/DX =    0.0                 !
 ! A23   A(16,15,35)           123.1771         -DE/DX =    0.0                 !
 ! A24   A(16,15,36)           123.1771         -DE/DX =    0.0                 !
 ! A25   A(35,15,36)           113.6457         -DE/DX =    0.0                 !
 ! A26   A(11,16,13)            89.9481         -DE/DX =    0.0                 !
 ! A27   A(11,16,14)            89.9636         -DE/DX =    0.0                 !
 ! A28   A(11,16,15)            91.5822         -DE/DX =    0.0                 !
 ! A29   A(11,16,17)            88.4178         -DE/DX =    0.0                 !
 ! A30   A(13,16,15)            91.5978         -DE/DX =    0.0                 !
 ! A31   A(13,16,17)            88.4022         -DE/DX =    0.0                 !
 ! A32   A(13,16,18)            89.9636         -DE/DX =    0.0                 !
 ! A33   A(14,16,15)            91.5978         -DE/DX =    0.0                 !
 ! A34   A(14,16,17)            88.4022         -DE/DX =    0.0                 !
 ! A35   A(14,16,18)            89.9481         -DE/DX =    0.0                 !
 ! A36   A(15,16,18)            91.5822         -DE/DX =    0.0                 !
 ! A37   A(17,16,18)            88.4178         -DE/DX =    0.0                 !
 ! A38   A(12,17,16)            88.4178         -DE/DX =    0.0                 !
 ! A39   A(12,17,19)            89.9481         -DE/DX =    0.0                 !
 ! A40   A(12,17,22)            89.9636         -DE/DX =    0.0                 !
 ! A41   A(12,17,23)            91.5822         -DE/DX =    0.0                 !
 ! A42   A(16,17,19)            88.4022         -DE/DX =    0.0                 !
 ! A43   A(16,17,21)            88.4178         -DE/DX =    0.0                 !
 ! A44   A(16,17,22)            88.4022         -DE/DX =    0.0                 !
 ! A45   A(19,17,21)            89.9636         -DE/DX =    0.0                 !
 ! A46   A(19,17,23)            91.5978         -DE/DX =    0.0                 !
 ! A47   A(21,17,22)            89.9481         -DE/DX =    0.0                 !
 ! A48   A(21,17,23)            91.5822         -DE/DX =    0.0                 !
 ! A49   A(22,17,23)            91.5978         -DE/DX =    0.0                 !
 ! A50   A(16,18,24)           118.8946         -DE/DX =    0.0                 !
 ! A51   A(3,19,17)            118.9746         -DE/DX =    0.0                 !
 ! A52   A(14,20,22)           125.24           -DE/DX =    0.0                 !
 ! A53   A(14,20,25)           117.3737         -DE/DX =    0.0                 !
 ! A54   A(22,20,25)           117.3737         -DE/DX =    0.0                 !
 ! A55   A(17,21,24)           118.8946         -DE/DX =    0.0                 !
 ! A56   A(17,22,20)           118.9746         -DE/DX =    0.0                 !
 ! A57   A(17,23,33)           123.1771         -DE/DX =    0.0                 !
 ! A58   A(17,23,34)           123.1771         -DE/DX =    0.0                 !
 ! A59   A(33,23,34)           113.6457         -DE/DX =    0.0                 !
 ! A60   A(18,24,21)           125.3691         -DE/DX =    0.0                 !
 ! A61   A(18,24,26)           117.3094         -DE/DX =    0.0                 !
 ! A62   A(21,24,26)           117.3094         -DE/DX =    0.0                 !
 ! A63   A(20,25,30)           109.37           -DE/DX =    0.0                 !
 ! A64   A(20,25,31)           110.1339         -DE/DX =    0.0                 !
 ! A65   A(20,25,32)           110.1339         -DE/DX =    0.0                 !
 ! A66   A(30,25,31)           108.2855         -DE/DX =    0.0                 !
 ! A67   A(30,25,32)           108.2855         -DE/DX =    0.0                 !
 ! A68   A(31,25,32)           110.5814         -DE/DX =    0.0                 !
 ! A69   A(24,26,27)           109.3564         -DE/DX =    0.0                 !
 ! A70   A(24,26,28)           110.1006         -DE/DX =    0.0                 !
 ! A71   A(24,26,29)           110.1006         -DE/DX =    0.0                 !
 ! A72   A(27,26,28)           108.2697         -DE/DX =    0.0                 !
 ! A73   A(27,26,29)           108.2697         -DE/DX =    0.0                 !
 ! A74   A(28,26,29)           110.6928         -DE/DX =    0.0                 !
 ! D1    D(11,1,2,5)            89.4021         -DE/DX =    0.0                 !
 ! D2    D(11,1,2,6)          -151.7566         -DE/DX =    0.0                 !
 ! D3    D(11,1,2,7)           -29.4393         -DE/DX =    0.0                 !
 ! D4    D(12,1,2,5)           -89.4021         -DE/DX =    0.0                 !
 ! D5    D(12,1,2,6)            29.4393         -DE/DX =    0.0                 !
 ! D6    D(12,1,2,7)           151.7566         -DE/DX =    0.0                 !
 ! D7    D(2,1,11,16)         -177.7629         -DE/DX =    0.0                 !
 ! D8    D(12,1,11,16)           0.9341         -DE/DX =    0.0                 !
 ! D9    D(2,1,12,17)          177.7629         -DE/DX =    0.0                 !
 ! D10   D(11,1,12,17)          -0.9341         -DE/DX =    0.0                 !
 ! D11   D(13,3,4,8)            89.3905         -DE/DX =    0.0                 !
 ! D12   D(13,3,4,9)          -151.7204         -DE/DX =    0.0                 !
 ! D13   D(13,3,4,10)          -29.4986         -DE/DX =    0.0                 !
 ! D14   D(19,3,4,8)           -89.3905         -DE/DX =    0.0                 !
 ! D15   D(19,3,4,9)            29.4986         -DE/DX =    0.0                 !
 ! D16   D(19,3,4,10)          151.7204         -DE/DX =    0.0                 !
 ! D17   D(4,3,13,16)         -177.729          -DE/DX =    0.0                 !
 ! D18   D(19,3,13,16)           0.9456         -DE/DX =    0.0                 !
 ! D19   D(4,3,19,17)          177.729          -DE/DX =    0.0                 !
 ! D20   D(13,3,19,17)          -0.9456         -DE/DX =    0.0                 !
 ! D21   D(1,11,16,13)         -88.8318         -DE/DX =    0.0                 !
 ! D22   D(1,11,16,14)          87.9738         -DE/DX =    0.0                 !
 ! D23   D(1,11,16,15)         179.5712         -DE/DX =    0.0                 !
 ! D24   D(1,11,16,17)          -0.4288         -DE/DX =    0.0                 !
 ! D25   D(1,11,18,24)          -0.845          -DE/DX =    0.0                 !
 ! D26   D(1,12,17,16)           0.4288         -DE/DX =    0.0                 !
 ! D27   D(1,12,17,19)          88.8318         -DE/DX =    0.0                 !
 ! D28   D(1,12,17,22)         -87.9738         -DE/DX =    0.0                 !
 ! D29   D(1,12,17,23)        -179.5712         -DE/DX =    0.0                 !
 ! D30   D(1,12,21,24)           0.845          -DE/DX =    0.0                 !
 ! D31   D(3,13,16,11)          87.9836         -DE/DX =    0.0                 !
 ! D32   D(3,13,16,15)         179.565          -DE/DX =    0.0                 !
 ! D33   D(3,13,16,17)          -0.435          -DE/DX =    0.0                 !
 ! D34   D(3,13,16,18)         -88.8532         -DE/DX =    0.0                 !
 ! D35   D(20,14,16,11)        -88.8532         -DE/DX =    0.0                 !
 ! D36   D(20,14,16,15)        179.565          -DE/DX =    0.0                 !
 ! D37   D(20,14,16,17)         -0.435          -DE/DX =    0.0                 !
 ! D38   D(20,14,16,18)         87.9836         -DE/DX =    0.0                 !
 ! D39   D(16,14,20,22)          0.9456         -DE/DX =    0.0                 !
 ! D40   D(16,14,20,25)       -177.729          -DE/DX =    0.0                 !
 ! D41   D(35,15,16,11)         89.6683         -DE/DX =    0.0                 !
 ! D42   D(35,15,16,13)         -0.3239         -DE/DX =    0.0                 !
 ! D43   D(35,15,16,14)        179.6761         -DE/DX =    0.0                 !
 ! D44   D(35,15,16,18)        -90.3317         -DE/DX =    0.0                 !
 ! D45   D(36,15,16,11)        -90.3317         -DE/DX =    0.0                 !
 ! D46   D(36,15,16,13)        179.6761         -DE/DX =    0.0                 !
 ! D47   D(36,15,16,14)         -0.3239         -DE/DX =    0.0                 !
 ! D48   D(36,15,16,18)         89.6683         -DE/DX =    0.0                 !
 ! D49   D(35,15,17,12)         89.6683         -DE/DX =    0.0                 !
 ! D50   D(35,15,17,19)         -0.3239         -DE/DX =    0.0                 !
 ! D51   D(35,15,17,21)        -90.3317         -DE/DX =    0.0                 !
 ! D52   D(35,15,17,22)        179.6761         -DE/DX =    0.0                 !
 ! D53   D(36,15,17,12)        -90.3317         -DE/DX =    0.0                 !
 ! D54   D(36,15,17,19)        179.6761         -DE/DX =    0.0                 !
 ! D55   D(36,15,17,21)         89.6683         -DE/DX =    0.0                 !
 ! D56   D(36,15,17,22)         -0.3239         -DE/DX =    0.0                 !
 ! D57   D(35,15,23,33)        180.0            -DE/DX =    0.0                 !
 ! D58   D(35,15,23,34)          0.0            -DE/DX =    0.0                 !
 ! D59   D(36,15,23,33)          0.0            -DE/DX =    0.0                 !
 ! D60   D(36,15,23,34)        180.0            -DE/DX =    0.0                 !
 ! D61   D(11,16,17,12)          0.0            -DE/DX =    0.0                 !
 ! D62   D(11,16,17,19)        -89.9922         -DE/DX =    0.0                 !
 ! D63   D(11,16,17,21)        180.0            -DE/DX =    0.0                 !
 ! D64   D(11,16,17,22)         90.0078         -DE/DX =    0.0                 !
 ! D65   D(13,16,17,12)         89.9922         -DE/DX =    0.0                 !
 ! D66   D(13,16,17,19)          0.0            -DE/DX =    0.0                 !
 ! D67   D(13,16,17,21)        -90.0078         -DE/DX =    0.0                 !
 ! D68   D(13,16,17,22)        180.0            -DE/DX =    0.0                 !
 ! D69   D(14,16,17,12)        -90.0078         -DE/DX =    0.0                 !
 ! D70   D(14,16,17,19)        180.0            -DE/DX =    0.0                 !
 ! D71   D(14,16,17,21)         89.9922         -DE/DX =    0.0                 !
 ! D72   D(14,16,17,22)          0.0            -DE/DX =    0.0                 !
 ! D73   D(18,16,17,12)        180.0            -DE/DX =    0.0                 !
 ! D74   D(18,16,17,19)         90.0078         -DE/DX =    0.0                 !
 ! D75   D(18,16,17,21)          0.0            -DE/DX =    0.0                 !
 ! D76   D(18,16,17,22)        -89.9922         -DE/DX =    0.0                 !
 ! D77   D(13,16,18,24)         87.9738         -DE/DX =    0.0                 !
 ! D78   D(14,16,18,24)        -88.8318         -DE/DX =    0.0                 !
 ! D79   D(15,16,18,24)        179.5712         -DE/DX =    0.0                 !
 ! D80   D(17,16,18,24)         -0.4288         -DE/DX =    0.0                 !
 ! D81   D(11,16,23,33)         90.3317         -DE/DX =    0.0                 !
 ! D82   D(11,16,23,34)        -89.6683         -DE/DX =    0.0                 !
 ! D83   D(13,16,23,33)       -179.6761         -DE/DX =    0.0                 !
 ! D84   D(13,16,23,34)          0.3239         -DE/DX =    0.0                 !
 ! D85   D(14,16,23,33)          0.3239         -DE/DX =    0.0                 !
 ! D86   D(14,16,23,34)       -179.6761         -DE/DX =    0.0                 !
 ! D87   D(18,16,23,33)        -89.6683         -DE/DX =    0.0                 !
 ! D88   D(18,16,23,34)         90.3317         -DE/DX =    0.0                 !
 ! D89   D(12,17,19,3)         -87.9836         -DE/DX =    0.0                 !
 ! D90   D(16,17,19,3)           0.435          -DE/DX =    0.0                 !
 ! D91   D(21,17,19,3)          88.8532         -DE/DX =    0.0                 !
 ! D92   D(23,17,19,3)        -179.565          -DE/DX =    0.0                 !
 ! D93   D(3,19,22,20)           0.8571         -DE/DX =    0.0                 !
 ! D94   D(16,17,21,24)          0.4288         -DE/DX =    0.0                 !
 ! D95   D(19,17,21,24)        -87.9738         -DE/DX =    0.0                 !
 ! D96   D(22,17,21,24)         88.8318         -DE/DX =    0.0                 !
 ! D97   D(23,17,21,24)       -179.5712         -DE/DX =    0.0                 !
 ! D98   D(12,17,22,20)         88.8532         -DE/DX =    0.0                 !
 ! D99   D(16,17,22,20)          0.435          -DE/DX =    0.0                 !
 ! D100  D(21,17,22,20)        -87.9836         -DE/DX =    0.0                 !
 ! D101  D(23,17,22,20)       -179.565          -DE/DX =    0.0                 !
 ! D102  D(12,17,23,33)         90.3317         -DE/DX =    0.0                 !
 ! D103  D(12,17,23,34)        -89.6683         -DE/DX =    0.0                 !
 ! D104  D(19,17,23,33)       -179.6761         -DE/DX =    0.0                 !
 ! D105  D(19,17,23,34)          0.3239         -DE/DX =    0.0                 !
 ! D106  D(21,17,23,33)        -89.6683         -DE/DX =    0.0                 !
 ! D107  D(21,17,23,34)         90.3317         -DE/DX =    0.0                 !
 ! D108  D(22,17,23,33)          0.3239         -DE/DX =    0.0                 !
 ! D109  D(22,17,23,34)       -179.6761         -DE/DX =    0.0                 !
 ! D110  D(16,18,24,21)          0.9341         -DE/DX =    0.0                 !
 ! D111  D(16,18,24,26)       -177.7629         -DE/DX =    0.0                 !
 ! D112  D(14,20,22,17)         -0.9456         -DE/DX =    0.0                 !
 ! D113  D(25,20,22,17)        177.729          -DE/DX =    0.0                 !
 ! D114  D(14,20,25,30)         89.3905         -DE/DX =    0.0                 !
 ! D115  D(14,20,25,31)        -29.4986         -DE/DX =    0.0                 !
 ! D116  D(14,20,25,32)       -151.7204         -DE/DX =    0.0                 !
 ! D117  D(22,20,25,30)        -89.3905         -DE/DX =    0.0                 !
 ! D118  D(22,20,25,31)        151.7204         -DE/DX =    0.0                 !
 ! D119  D(22,20,25,32)         29.4986         -DE/DX =    0.0                 !
 ! D120  D(17,21,24,18)         -0.9341         -DE/DX =    0.0                 !
 ! D121  D(17,21,24,26)        177.7629         -DE/DX =    0.0                 !
 ! D122  D(18,24,26,27)         89.4021         -DE/DX =    0.0                 !
 ! D123  D(18,24,26,28)        -29.4393         -DE/DX =    0.0                 !
 ! D124  D(18,24,26,29)       -151.7566         -DE/DX =    0.0                 !
 ! D125  D(21,24,26,27)        -89.4021         -DE/DX =    0.0                 !
 ! D126  D(21,24,26,28)        151.7566         -DE/DX =    0.0                 !
 ! D127  D(21,24,26,29)         29.4393         -DE/DX =    0.0                 !
 --------------------------------------------------------------------------------
 GradGradGradGradGradGradGradGradGradGradGradGradGradGradGradGradGradGrad

                          Input orientation:                          
 ---------------------------------------------------------------------
 Center     Atomic      Atomic             Coordinates (Angstroms)
 Number     Number       Type             X           Y           Z
 ---------------------------------------------------------------------
      1          6           0       -0.008637    2.679440    0.000000
      2          6           0       -0.061034    4.197798    0.000000
      3          6           0        2.680261    0.009119    0.000000
      4          6           0        4.198269    0.062469    0.000000
      5          1           0       -1.116771    4.528241    0.000000
      6          1           0        0.424670    4.593394    0.906235
      7          1           0        0.424670    4.593394   -0.906235
      8          1           0        4.528290    1.118330    0.000000
      9          1           0        4.594794   -0.423607    0.905619
     10          1           0        4.594794   -0.423607   -0.905619
     11          8           0       -0.000020    2.076379   -1.167755
     12          8           0       -0.000020    2.076379    1.167755
     13          8           0        2.075820    0.000301   -1.167207
     14          8           0       -2.075820   -0.000301   -1.167207
     15          8           0        0.000000    0.000000   -3.500195
     16         45           0        0.000000    0.000000   -1.225110
     17         45           0        0.000000    0.000000    1.225110
     18          8           0        0.000020   -2.076379   -1.167755
     19          8           0        2.075820    0.000301    1.167207
     20          6           0       -2.680261   -0.009119    0.000000
     21          8           0        0.000020   -2.076379    1.167755
     22          8           0       -2.075820   -0.000301    1.167207
     23          8           0        0.000000    0.000000    3.500195
     24          6           0        0.008637   -2.679440    0.000000
     25          6           0       -4.198269   -0.062469    0.000000
     26          6           0        0.061034   -4.197798    0.000000
     27          1           0        1.116771   -4.528241    0.000000
     28          1           0       -0.424670   -4.593394   -0.906235
     29          1           0       -0.424670   -4.593394    0.906235
     30          1           0       -4.528290   -1.118330    0.000000
     31          1           0       -4.594794    0.423607   -0.905619
     32          1           0       -4.594794    0.423607    0.905619
     33          1           0       -0.821551   -0.004763    4.037344
     34          1           0        0.821551    0.004763    4.037344
     35          1           0        0.821551    0.004763   -4.037344
     36          1           0       -0.821551   -0.004763   -4.037344
 ---------------------------------------------------------------------
                    Distance matrix (angstroms):
                    1          2          3          4          5
     1  C    0.000000
     2  C    1.519262   0.000000
     3  C    3.789563   5.005970   0.000000
     4  C    4.954452   5.936548   1.518945   0.000000
     5  H    2.155465   1.106243   5.902535   6.942101   0.000000
     6  H    2.161535   1.101665   5.188885   5.965785   1.789287
     7  H    2.161535   1.101665   5.188885   5.965785   1.789287
     8  H    4.797996   5.526755   2.155356   1.106235   6.595014
     9  H    5.624999   6.622255   2.161673   1.101656   7.613338
    10  H    5.624999   6.622255   2.161673   1.101656   7.613338
    11  O    1.314310   2.422353   3.580660   4.800533   2.936395
    12  O    1.314310   2.422353   3.580660   4.800533   2.936395
    13  O    3.589585   4.852577   1.314458   2.423021   5.661913
    14  O    3.580032   4.800601   4.897221   6.382046   4.773871
    15  O    4.408043   5.465949   4.408543   5.466327   5.831253
    16  Rh   2.946246   4.373343   2.946995   4.373815   4.822141
    17  Rh   2.946246   4.373343   2.946995   4.373815   4.822141
    18  O    4.897095   6.382216   3.591190   4.854238   6.799403
    19  O    3.589585   4.852577   1.314458   2.423021   5.661913
    20  C    3.790241   4.955654   5.360554   6.878903   4.799181
    21  O    4.897095   6.382216   3.591190   4.854238   6.799403
    22  O    3.580032   4.800601   4.897221   6.382046   4.773871
    23  O    4.408043   5.465949   4.408543   5.466327   5.831253
    24  C    5.358908   6.877591   3.790241   5.007104   7.295013
    25  C    5.007104   5.938568   6.878903   8.397468   5.529037
    26  C    6.877591   8.396483   4.955654   5.938568   8.805168
    27  H    7.295013   8.805168   4.799181   5.529037   9.327839
    28  H    7.340876   8.845256   5.625388   6.623435   9.192633
    29  H    7.340876   8.845256   5.625388   6.623435   9.192633
    30  H    5.903417   6.943889   7.296188   8.806085   6.597138
    31  H    5.190546   5.968220   7.342913   8.846950   5.455714
    32  H    5.190546   5.968220   7.342913   8.846950   5.455714
    33  H    4.915885   5.877079   5.344439   6.442302   6.077453
    34  H    4.913578   5.887329   4.444657   5.263621   6.365461
    35  H    4.913578   5.887329   4.444657   5.263621   6.365461
    36  H    4.915885   5.877079   5.344439   6.442302   6.077453
                    6          7          8          9         10
     6  H    0.000000
     7  H    1.812469   0.000000
     8  H    5.453167   5.453167   0.000000
     9  H    6.523820   6.770749   1.789452   0.000000
    10  H    6.770749   6.523820   1.789452   1.811237   0.000000
    11  O    3.288945   2.565954   4.773584   5.626822   5.237457
    12  O    2.565954   3.288945   4.773584   5.237457   5.626822
    13  O    5.303015   4.887833   2.937171   3.289610   2.567753
    14  O    5.626157   5.236658   6.799116   6.998063   6.689148
    15  O    6.379360   5.292282   5.831590   6.379872   5.293714
    16  Rh   5.081559   4.623991   4.822548   5.082478   4.625327
    17  Rh   4.623991   5.081559   4.822548   4.625327   5.082478
    18  O    6.997688   6.688392   5.663484   5.304949   4.890023
    19  O    4.887833   5.303015   2.937171   2.567753   3.289610
    20  C    5.625388   5.625388   7.296188   7.342913   7.342913
    21  O    6.688392   6.997688   5.663484   4.890023   5.304949
    22  O    5.236658   5.626157   6.799116   6.689148   6.998063
    23  O    5.292282   6.379360   5.831590   5.293714   6.379872
    24  C    7.340876   7.340876   5.903417   5.190546   5.190546
    25  C    6.623435   6.623435   8.806085   8.846950   8.846950
    26  C    8.845256   8.845256   6.943889   5.968220   5.968220
    27  H    9.192633   9.192633   6.597138   5.455714   5.455714
    28  H    9.402313   9.225966   7.614254   6.772367   6.525500
    29  H    9.225966   9.402313   7.614254   6.525500   6.772367
    30  H    7.614254   7.614254   9.328682   9.194208   9.194208
    31  H    6.772367   6.525500   9.194208   9.404620   9.228559
    32  H    6.525500   6.772367   9.194208   9.228559   9.404620
    33  H    5.700874   6.865500   6.795755   6.270560   7.344733
    34  H    5.569281   6.756628   5.592861   4.922253   6.233277
    35  H    6.756628   5.569281   5.592861   6.233277   4.922253
    36  H    6.865500   5.700874   6.795755   7.344733   6.270560
                   11         12         13         14         15
    11  O    0.000000
    12  O    2.335511   0.000000
    13  O    2.935849   3.751168   0.000000
    14  O    2.936247   3.751479   4.151640   0.000000
    15  O    3.122759   5.108925   3.122797   3.122797   0.000000
    16  Rh   2.077171   3.168147   2.076627   2.076627   2.275085
    17  Rh   3.168147   2.077171   3.167367   3.167367   4.725305
    18  O    4.152758   4.764453   2.936247   2.935849   3.122759
    19  O    3.751168   2.935849   2.334415   4.762941   5.108197
    20  C    3.591190   3.591190   4.897221   1.314458   4.408543
    21  O    4.764453   4.152758   3.751479   3.751168   5.108925
    22  O    3.751479   2.936247   4.762941   2.334415   5.108197
    23  O    5.108925   3.122759   5.108197   5.108197   7.000391
    24  C    4.897095   4.897095   3.580032   3.589585   4.408043
    25  C    4.854238   4.854238   6.382046   2.423021   5.466327
    26  C    6.382216   6.382216   4.800601   4.852577   5.465949
    27  H    6.799403   6.799403   4.773871   5.661913   5.831253
    28  H    6.688392   6.997688   5.236658   4.887833   5.292282
    29  H    6.997688   6.688392   5.626157   5.303015   6.379360
    30  H    5.663484   5.663484   6.799116   2.937171   5.831590
    31  H    4.890023   5.304949   6.689148   2.567753   5.293714
    32  H    5.304949   4.890023   6.998063   3.289610   6.379872
    33  H    5.665609   3.638764   5.956689   5.353557   7.582181
    34  H    5.662122   3.633333   5.353557   5.956689   7.582181
    35  H    3.633333   5.662122   3.132235   4.078292   0.981579
    36  H    3.638764   5.665609   4.078292   3.132235   0.981579
                   16         17         18         19         20
    16  Rh   0.000000
    17  Rh   2.450220   0.000000
    18  O    2.077171   3.168147   0.000000
    19  O    3.167367   2.076627   3.751479   0.000000
    20  C    2.946995   2.946995   3.580660   4.897221   0.000000
    21  O    3.168147   2.077171   2.335511   2.936247   3.580660
    22  O    3.167367   2.076627   3.751168   4.151640   1.314458
    23  O    4.725305   2.275085   5.108925   3.122797   4.408543
    24  C    2.946246   2.946246   1.314310   3.580032   3.789563
    25  C    4.373815   4.373815   4.800533   6.382046   1.518945
    26  C    4.373343   4.373343   2.422353   4.800601   5.005970
    27  H    4.822141   4.822141   2.936395   4.773871   5.902535
    28  H    4.623991   5.081559   2.565954   5.626157   5.188885
    29  H    5.081559   4.623991   3.288945   5.236658   5.188885
    30  H    4.822548   4.822548   4.773584   6.799116   2.155356
    31  H    4.625327   5.082478   5.237457   6.998063   2.161673
    32  H    5.082478   4.625327   5.626822   6.689148   2.161673
    33  H    5.326199   2.929783   5.662122   4.078292   4.444657
    34  H    5.326199   2.929783   5.665609   3.132235   5.344439
    35  H    2.929783   5.326199   3.638764   5.353557   5.344439
    36  H    2.929783   5.326199   3.633333   5.956689   4.444657
                   21         22         23         24         25
    21  O    0.000000
    22  O    2.935849   0.000000
    23  O    3.122759   3.122797   0.000000
    24  C    1.314310   3.589585   4.408043   0.000000
    25  C    4.800533   2.423021   5.466327   4.954452   0.000000
    26  C    2.422353   4.852577   5.465949   1.519262   5.936548
    27  H    2.936395   5.661913   5.831253   2.155465   6.942101
    28  H    3.288945   5.303015   6.379360   2.161535   5.965785
    29  H    2.565954   4.887833   5.292282   2.161535   5.965785
    30  H    4.773584   2.937171   5.831590   4.797996   1.106235
    31  H    5.626822   3.289610   6.379872   5.624999   1.101656
    32  H    5.237457   2.567753   5.293714   5.624999   1.101656
    33  H    3.633333   3.132235   0.981579   4.913578   5.263621
    34  H    3.638764   4.078292   0.981579   4.915885   6.442302
    35  H    5.665609   5.956689   7.582181   4.915885   6.442302
    36  H    5.662122   5.353557   7.582181   4.913578   5.263621
                   26         27         28         29         30
    26  C    0.000000
    27  H    1.106243   0.000000
    28  H    1.101665   1.789287   0.000000
    29  H    1.101665   1.789287   1.812469   0.000000
    30  H    5.526755   6.595014   5.453167   5.453167   0.000000
    31  H    6.622255   7.613338   6.523820   6.770749   1.789452
    32  H    6.622255   7.613338   6.770749   6.523820   1.789452
    33  H    5.887329   6.365461   6.756628   5.569281   5.592861
    34  H    5.877079   6.077453   6.865500   5.700874   6.795755
    35  H    5.877079   6.077453   5.700874   6.865500   6.795755
    36  H    5.887329   6.365461   5.569281   6.756628   5.592861
                   31         32         33         34         35
    31  H    0.000000
    32  H    1.811237   0.000000
    33  H    6.233277   4.922253   0.000000
    34  H    7.344733   6.270560   1.643129   0.000000
    35  H    6.270560   7.344733   8.240174   8.074688   0.000000
    36  H    4.922253   6.233277   8.074688   8.240174   1.643129
                   36
    36  H    0.000000
 Stoichiometry    C8H16O10Rh2
 Framework group  C2H[C2(ORh.RhO),SGH(C8H4),X(H12O8)]
 Deg. of freedom    28
 Full point group                 C2H     NOp   4
 Largest Abelian subgroup         C2H     NOp   4
 Largest concise Abelian subgroup C2H     NOp   4
                         Standard orientation:                         
 ---------------------------------------------------------------------
 Center     Atomic      Atomic             Coordinates (Angstroms)
 Number     Number       Type             X           Y           Z
 ---------------------------------------------------------------------
      1          6           0       -0.008611    2.679440    0.000000
      2          6           0       -0.060994    4.197799    0.000000
      3          6           0        2.680261    0.009093    0.000000
      4          6           0        4.198270    0.062429    0.000000
      5          1           0       -1.116728    4.528252    0.000000
      6          1           0        0.424714    4.593390    0.906235
      7          1           0        0.424714    4.593390   -0.906235
      8          1           0        4.528301    1.118287    0.000000
      9          1           0        4.594790   -0.423650    0.905619
     10          1           0        4.594790   -0.423650   -0.905619
     11          8           0        0.000000    2.076379   -1.167755
     12          8           0        0.000000    2.076379    1.167755
     13          8           0        2.075820    0.000281   -1.167207
     14          8           0       -2.075820   -0.000281   -1.167207
     15          8           0        0.000000    0.000000   -3.500195
     16         45           0        0.000000    0.000000   -1.225110
     17         45           0        0.000000    0.000000    1.225110
     18          8           0        0.000000   -2.076379   -1.167755
     19          8           0        2.075820    0.000281    1.167207
     20          6           0       -2.680261   -0.009093    0.000000
     21          8           0        0.000000   -2.076379    1.167755
     22          8           0       -2.075820   -0.000281    1.167207
     23          8           0        0.000000    0.000000    3.500195
     24          6           0        0.008611   -2.679440    0.000000
     25          6           0       -4.198270   -0.062429    0.000000
     26          6           0        0.060994   -4.197799    0.000000
     27          1           0        1.116728   -4.528252    0.000000
     28          1           0       -0.424714   -4.593390   -0.906235
     29          1           0       -0.424714   -4.593390    0.906235
     30          1           0       -4.528301   -1.118287    0.000000
     31          1           0       -4.594790    0.423650   -0.905619
     32          1           0       -4.594790    0.423650    0.905619
     33          1           0       -0.821551   -0.004756    4.037344
     34          1           0        0.821551    0.004756    4.037344
     35          1           0        0.821551    0.004756   -4.037344
     36          1           0       -0.821551   -0.004756   -4.037344
 ---------------------------------------------------------------------
 Rotational constants (GHZ):      0.2593921      0.2590111      0.2521354

 **********************************************************************

            Population analysis using the SCF density.

 **********************************************************************

 Orbital symmetries:
       Occupied  (AU) (AG) (AG) (AU) (BG) (BU) (AG) (AU) (BG) (BU)
                 (AG) (BU) (AG) (BU) (BU) (AG) (BU) (AG) (AG) (AU)
                 (BU) (BU) (BG) (BG) (AG) (AU) (AG) (BU) (AG) (BU)
                 (AU) (AG) (AU) (BG) (AU) (BG) (AG) (BU) (AG) (BU)
                 (BU) (BG) (AG) (AG) (BU) (BU) (AU) (AU) (BG) (BG)
                 (AG) (BU) (BU) (AG) (BU) (BU) (AG) (AG) (AG) (AU)
                 (AU) (BG) (AU) (BG) (AG) (BU) (BU) (AG) (AG) (AU)
                 (AG) (BU) (BG) (BU) (AU) (BU) (BG) (AU) (BG) (BG)
                 (BG) (AU) (AG) (BU) (BU) (AG) (AU) (BG) (BG)
       Virtual   (AU) (AU) (AG) (BU) (BU) (AG) (AG) (AU) (AG) (BU)
                 (BU) (BG) (AG) (BG) (BU) (AG) (AU) (AG) (BG) (BU)
                 (BU) (AG) (AG) (AU) (AG) (BU) (BU) (BG) (BG) (AU)
                 (AG) (BU) (AG) (BU) (AU) (AG) (BU) (BU) (AG) (AG)
                 (AU) (BG) (AG) (AU) (BG) (AG) (BU) (BU) (AG) (BU)
                 (BU) (BG) (AU) (BG) (AU) (BU) (BG) (BU) (BG) (AG)
                 (AU) (BU) (AG) (BU) (AG) (BG) (BG) (AU) (BU) (BU)
                 (AG) (AG) (AU) (AG) (AU) (AG) (AU) (BU) (BG) (BU)
                 (AG) (BG) (BU) (AU) (AG) (AU) (BU) (BU) (BG) (AG)
                 (AU) (BU) (BG) (AG) (AU) (BG) (AG) (BU) (BG) (BU)
                 (BU) (AG) (AU) (BU) (AG) (BG) (BG) (AU) (AG) (BU)
                 (AG) (BG) (AG) (AG) (AG) (BU) (BU) (AG) (AU) (AU)
                 (BU) (BG) (BU) (AG) (BG) (AG) (AU) (BG) (BU) (AU)
                 (AU) (BU) (AG) (BG) (BU) (BU) (AG) (AG) (AU) (BU)
                 (BU) (AU) (BG) (BG) (AG) (AU) (AG) (AU) (AG)
 The electronic state is 1-AG.
 Alpha  occ. eigenvalues --  -18.81206 -18.81206 -18.78960 -18.78960 -18.78960
 Alpha  occ. eigenvalues --  -18.78960 -18.78523 -18.78522 -18.78522 -18.78522
 Alpha  occ. eigenvalues --  -10.03504 -10.03504 -10.03041 -10.03041  -9.91434
 Alpha  occ. eigenvalues --   -9.91434  -9.91094  -9.91094  -2.95707  -2.95480
 Alpha  occ. eigenvalues --   -1.79984  -1.79855  -1.79778  -1.79648  -1.79123
 Alpha  occ. eigenvalues --   -1.77281  -0.97988  -0.97571  -0.97327  -0.97199
 Alpha  occ. eigenvalues --   -0.94685  -0.94683  -0.89784  -0.89323  -0.89189
 Alpha  occ. eigenvalues --   -0.88936  -0.66867  -0.66691  -0.66478  -0.66330
 Alpha  occ. eigenvalues --   -0.51780  -0.51741  -0.49723  -0.48950  -0.48003
 Alpha  occ. eigenvalues --   -0.47599  -0.44628  -0.43857  -0.41747  -0.41327
 Alpha  occ. eigenvalues --   -0.41153  -0.40377  -0.40168  -0.40133  -0.39875
 Alpha  occ. eigenvalues --   -0.39698  -0.39347  -0.39168  -0.37343  -0.36701
 Alpha  occ. eigenvalues --   -0.35451  -0.35126  -0.35094  -0.34783  -0.34273
 Alpha  occ. eigenvalues --   -0.32929  -0.32591  -0.31587  -0.29997  -0.29518
 Alpha  occ. eigenvalues --   -0.29241  -0.27706  -0.27662  -0.26110  -0.25666
 Alpha  occ. eigenvalues --   -0.25655  -0.25171  -0.24971  -0.24923  -0.23982
 Alpha  occ. eigenvalues --   -0.23448  -0.23123  -0.20759  -0.19761  -0.19085
 Alpha  occ. eigenvalues --   -0.18915  -0.14608  -0.14435  -0.13865
 Alpha virt. eigenvalues --   -0.07313  -0.07162  -0.05859  -0.03522  -0.03152
 Alpha virt. eigenvalues --   -0.02478  -0.02091  -0.01324  -0.01029   0.03346
 Alpha virt. eigenvalues --    0.03938   0.05301   0.05971   0.07188   0.10933
 Alpha virt. eigenvalues --    0.11529   0.11920   0.12378   0.13809   0.13960
 Alpha virt. eigenvalues --    0.14011   0.14446   0.14994   0.15061   0.15296
 Alpha virt. eigenvalues --    0.16380   0.16763   0.16840   0.17334   0.17362
 Alpha virt. eigenvalues --    0.18155   0.18248   0.18470   0.18539   0.19636
 Alpha virt. eigenvalues --    0.20000   0.20490   0.20885   0.23044   0.24371
 Alpha virt. eigenvalues --    0.25485   0.26866   0.27096   0.27326   0.27572
 Alpha virt. eigenvalues --    0.28028   0.28997   0.29360   0.29988   0.31149
 Alpha virt. eigenvalues --    0.31403   0.32210   0.32392   0.32518   0.34696
 Alpha virt. eigenvalues --    0.36506   0.36678   0.36803   0.37567   0.38985
 Alpha virt. eigenvalues --    0.39532   0.40250   0.40255   0.40653   0.44059
 Alpha virt. eigenvalues --    0.45776   0.46121   0.46953   0.49692   0.50793
 Alpha virt. eigenvalues --    0.50817   0.52545   0.52623   0.55575   0.55581
 Alpha virt. eigenvalues --    0.60134   0.62630   0.64337   0.64743   0.64949
 Alpha virt. eigenvalues --    0.65865   0.67291   0.67936   0.71201   0.74435
 Alpha virt. eigenvalues --    0.75227   0.75260   0.75833   0.76628   0.76833
 Alpha virt. eigenvalues --    0.79140   0.81446   0.83165   0.84587   0.84780
 Alpha virt. eigenvalues --    0.85308   0.86215   0.86628   0.87223   0.87397
 Alpha virt. eigenvalues --    0.89879   0.90689   0.91260   0.92628   0.92761
 Alpha virt. eigenvalues --    0.93337   0.93450   0.94539   0.95345   0.97517
 Alpha virt. eigenvalues --    0.99704   1.00202   1.00207   1.01097   1.01762
 Alpha virt. eigenvalues --    1.02374   1.03762   1.04532   1.05326   1.06049
 Alpha virt. eigenvalues --    1.07347   1.07791   1.08781   1.08783   1.09554
 Alpha virt. eigenvalues --    1.13246   1.15117   1.18112   1.18471   1.19404
 Alpha virt. eigenvalues --    1.22359   1.27241   1.27773   1.32441   1.36062
 Alpha virt. eigenvalues --    1.37863   1.37912   1.69003   1.77699   1.78406
 Alpha virt. eigenvalues --    1.80755   1.84656   1.89939   1.90288   2.00161
 Alpha virt. eigenvalues --    2.03261   2.11049   5.91730   7.26024
          Condensed to atoms (all electrons):
              1          2          3          4          5          6
     1  C    4.915428   0.255473   0.002503  -0.000567  -0.021967  -0.022614
     2  C    0.255473   5.620453  -0.000517   0.000028   0.364698   0.354858
     3  C    0.002503  -0.000517   4.890411   0.258281   0.000002   0.000005
     4  C   -0.000567   0.000028   0.258281   5.615853   0.000000  -0.000001
     5  H   -0.021967   0.364698   0.000002   0.000000   0.459626  -0.018944
     6  H   -0.022614   0.354858   0.000005  -0.000001  -0.018944   0.459019
     7  H   -0.022614   0.354858   0.000005  -0.000001  -0.018944  -0.019539
     8  H   -0.000005  -0.000002  -0.022041   0.364503   0.000000   0.000000
     9  H    0.000005   0.000000  -0.022861   0.354967   0.000000   0.000000
    10  H    0.000005   0.000000  -0.022861   0.354967   0.000000   0.000000
    11  O    0.329080  -0.099306   0.000348   0.000003  -0.001871   0.001415
    12  O    0.329080  -0.099306   0.000348   0.000003  -0.001871   0.003592
    13  O   -0.000174   0.000013   0.336285  -0.098670   0.000000   0.000000
    14  O    0.000315   0.000008  -0.000136  -0.000004   0.000004   0.000000
    15  O   -0.000769  -0.000028  -0.000926  -0.000009   0.000000   0.000000
    16  Rh  -0.099935   0.001582  -0.099315   0.001894   0.000051  -0.000038
    17  Rh  -0.099935   0.001582  -0.099315   0.001894   0.000051   0.001542
    18  O   -0.000133  -0.000005  -0.000123   0.000010   0.000000   0.000000
    19  O   -0.000174   0.000013   0.336285  -0.098670   0.000000   0.000000
    20  C    0.002485  -0.000557  -0.000713  -0.000012  -0.000002   0.000006
    21  O   -0.000133  -0.000005  -0.000123   0.000010   0.000000   0.000000
    22  O    0.000315   0.000008  -0.000136  -0.000004   0.000004  -0.000001
    23  O   -0.000769  -0.000028  -0.000926  -0.000009   0.000000  -0.000001
    24  C   -0.000738  -0.000012   0.002485  -0.000529   0.000000   0.000000
    25  C   -0.000529   0.000028  -0.000012   0.000000  -0.000002   0.000000
    26  C   -0.000012   0.000000  -0.000557   0.000028   0.000000   0.000000
    27  H    0.000000   0.000000  -0.000002  -0.000002   0.000000   0.000000
    28  H    0.000000   0.000000   0.000006   0.000000   0.000000   0.000000
    29  H    0.000000   0.000000   0.000006   0.000000   0.000000   0.000000
    30  H    0.000002   0.000000   0.000000   0.000000   0.000000   0.000000
    31  H    0.000004  -0.000001   0.000000   0.000000   0.000000   0.000000
    32  H    0.000004  -0.000001   0.000000   0.000000   0.000000   0.000000
    33  H    0.000037   0.000000   0.000023   0.000000   0.000000   0.000000
    34  H    0.000034   0.000000   0.000069  -0.000006   0.000000   0.000000
    35  H    0.000034   0.000000   0.000069  -0.000006   0.000000   0.000000
    36  H    0.000037   0.000000   0.000023   0.000000   0.000000   0.000000
              7          8          9         10         11         12
     1  C   -0.022614  -0.000005   0.000005   0.000005   0.329080   0.329080
     2  C    0.354858  -0.000002   0.000000   0.000000  -0.099306  -0.099306
     3  C    0.000005  -0.022041  -0.022861  -0.022861   0.000348   0.000348
     4  C   -0.000001   0.364503   0.354967   0.354967   0.000003   0.000003
     5  H   -0.018944   0.000000   0.000000   0.000000  -0.001871  -0.001871
     6  H   -0.019539   0.000000   0.000000   0.000000   0.001415   0.003592
     7  H    0.459019   0.000000   0.000000   0.000000   0.003592   0.001415
     8  H    0.000000   0.458082  -0.019026  -0.019026   0.000004   0.000004
     9  H    0.000000  -0.019026   0.459364  -0.019432   0.000000  -0.000001
    10  H    0.000000  -0.019026  -0.019432   0.459364  -0.000001   0.000000
    11  O    0.003592   0.000004   0.000000  -0.000001   7.950748  -0.053997
    12  O    0.001415   0.000004  -0.000001   0.000000  -0.053997   7.950748
    13  O    0.000000  -0.001864   0.001416   0.003600  -0.002209   0.000014
    14  O   -0.000001   0.000000   0.000000   0.000000  -0.002196   0.000012
    15  O   -0.000001   0.000000   0.000000  -0.000001  -0.002071  -0.000003
    16  Rh   0.001542   0.000176   0.000038   0.001616   0.206327  -0.030737
    17  Rh  -0.000038   0.000176   0.001616   0.000038  -0.030737   0.206327
    18  O    0.000000   0.000000   0.000000   0.000000  -0.001252  -0.000014
    19  O    0.000000  -0.001864   0.003600   0.001416   0.000014  -0.002209
    20  C    0.000006   0.000000   0.000000   0.000000  -0.000123  -0.000123
    21  O    0.000000   0.000000   0.000000   0.000000  -0.000014  -0.001252
    22  O    0.000000   0.000000   0.000000   0.000000   0.000012  -0.002196
    23  O    0.000000   0.000000  -0.000001   0.000000  -0.000003  -0.002071
    24  C    0.000000   0.000002   0.000004   0.000004  -0.000133  -0.000133
    25  C    0.000000   0.000000   0.000000   0.000000   0.000010   0.000010
    26  C    0.000000   0.000000  -0.000001  -0.000001  -0.000005  -0.000005
    27  H    0.000000   0.000000   0.000000   0.000000   0.000000   0.000000
    28  H    0.000000   0.000000   0.000000   0.000000   0.000000   0.000000
    29  H    0.000000   0.000000   0.000000   0.000000   0.000000   0.000000
    30  H    0.000000   0.000000   0.000000   0.000000   0.000000   0.000000
    31  H    0.000000   0.000000   0.000000   0.000000   0.000000   0.000000
    32  H    0.000000   0.000000   0.000000   0.000000   0.000000   0.000000
    33  H    0.000000   0.000000   0.000000   0.000000   0.000000   0.000003
    34  H    0.000000   0.000000   0.000000   0.000000   0.000000   0.000000
    35  H    0.000000   0.000000   0.000000   0.000000   0.000000   0.000000
    36  H    0.000000   0.000000   0.000000   0.000000   0.000003   0.000000
             13         14         15         16         17         18
     1  C   -0.000174   0.000315  -0.000769  -0.099935  -0.099935  -0.000133
     2  C    0.000013   0.000008  -0.000028   0.001582   0.001582  -0.000005
     3  C    0.336285  -0.000136  -0.000926  -0.099315  -0.099315  -0.000123
     4  C   -0.098670  -0.000004  -0.000009   0.001894   0.001894   0.000010
     5  H    0.000000   0.000004   0.000000   0.000051   0.000051   0.000000
     6  H    0.000000   0.000000   0.000000  -0.000038   0.001542   0.000000
     7  H    0.000000  -0.000001  -0.000001   0.001542  -0.000038   0.000000
     8  H   -0.001864   0.000000   0.000000   0.000176   0.000176   0.000000
     9  H    0.001416   0.000000   0.000000   0.000038   0.001616   0.000000
    10  H    0.003600   0.000000  -0.000001   0.001616   0.000038   0.000000
    11  O   -0.002209  -0.002196  -0.002071   0.206327  -0.030737  -0.001252
    12  O    0.000014   0.000012  -0.000003  -0.030737   0.206327  -0.000014
    13  O    7.959794  -0.001261  -0.003137   0.200467  -0.028014  -0.002196
    14  O   -0.001261   7.959794  -0.003137   0.200467  -0.028014  -0.002209
    15  O   -0.003137  -0.003137   8.138408   0.055090  -0.017551  -0.002071
    16  Rh   0.200467   0.200467   0.055090  16.643588  -0.240778   0.206327
    17  Rh  -0.028014  -0.028014  -0.017551  -0.240778  16.643588  -0.030737
    18  O   -0.002196  -0.002209  -0.002071   0.206327  -0.030737   7.950748
    19  O   -0.055798  -0.000014   0.000000  -0.028014   0.200467   0.000012
    20  C   -0.000136   0.336285  -0.000926  -0.099315  -0.099315   0.000348
    21  O    0.000012   0.000014  -0.000003  -0.030737   0.206327  -0.053997
    22  O   -0.000014  -0.055798   0.000000  -0.028014   0.200467   0.000014
    23  O    0.000000   0.000000   0.000000  -0.017551   0.055090  -0.000003
    24  C    0.000315  -0.000174  -0.000769  -0.099935  -0.099935   0.329080
    25  C   -0.000004  -0.098670  -0.000009   0.001894   0.001894   0.000003
    26  C    0.000008   0.000013  -0.000028   0.001582   0.001582  -0.099306
    27  H    0.000004   0.000000   0.000000   0.000051   0.000051  -0.001871
    28  H   -0.000001   0.000000  -0.000001   0.001542  -0.000038   0.003592
    29  H    0.000000   0.000000   0.000000  -0.000038   0.001542   0.001415
    30  H    0.000000  -0.001864   0.000000   0.000176   0.000176   0.000004
    31  H    0.000000   0.003600  -0.000001   0.001616   0.000038  -0.000001
    32  H    0.000000   0.001416   0.000000   0.000038   0.001616   0.000000
    33  H    0.000000   0.000000   0.000000   0.000705  -0.004567   0.000000
    34  H    0.000000   0.000000   0.000000   0.000705  -0.004567   0.000000
    35  H    0.000452   0.000084   0.260544  -0.004567   0.000705   0.000003
    36  H    0.000084   0.000452   0.260544  -0.004567   0.000705   0.000000
             19         20         21         22         23         24
     1  C   -0.000174   0.002485  -0.000133   0.000315  -0.000769  -0.000738
     2  C    0.000013  -0.000557  -0.000005   0.000008  -0.000028  -0.000012
     3  C    0.336285  -0.000713  -0.000123  -0.000136  -0.000926   0.002485
     4  C   -0.098670  -0.000012   0.000010  -0.000004  -0.000009  -0.000529
     5  H    0.000000  -0.000002   0.000000   0.000004   0.000000   0.000000
     6  H    0.000000   0.000006   0.000000  -0.000001  -0.000001   0.000000
     7  H    0.000000   0.000006   0.000000   0.000000   0.000000   0.000000
     8  H   -0.001864   0.000000   0.000000   0.000000   0.000000   0.000002
     9  H    0.003600   0.000000   0.000000   0.000000  -0.000001   0.000004
    10  H    0.001416   0.000000   0.000000   0.000000   0.000000   0.000004
    11  O    0.000014  -0.000123  -0.000014   0.000012  -0.000003  -0.000133
    12  O   -0.002209  -0.000123  -0.001252  -0.002196  -0.002071  -0.000133
    13  O   -0.055798  -0.000136   0.000012  -0.000014   0.000000   0.000315
    14  O   -0.000014   0.336285   0.000014  -0.055798   0.000000  -0.000174
    15  O    0.000000  -0.000926  -0.000003   0.000000   0.000000  -0.000769
    16  Rh  -0.028014  -0.099315  -0.030737  -0.028014  -0.017551  -0.099935
    17  Rh   0.200467  -0.099315   0.206327   0.200467   0.055090  -0.099935
    18  O    0.000012   0.000348  -0.053997   0.000014  -0.000003   0.329080
    19  O    7.959794  -0.000136  -0.002196  -0.001261  -0.003137   0.000315
    20  C   -0.000136   4.890411   0.000348   0.336285  -0.000926   0.002503
    21  O   -0.002196   0.000348   7.950748  -0.002209  -0.002071   0.329080
    22  O   -0.001261   0.336285  -0.002209   7.959794  -0.003137  -0.000174
    23  O   -0.003137  -0.000926  -0.002071  -0.003137   8.138408  -0.000769
    24  C    0.000315   0.002503   0.329080  -0.000174  -0.000769   4.915428
    25  C   -0.000004   0.258281   0.000003  -0.098670  -0.000009  -0.000567
    26  C    0.000008  -0.000517  -0.099306   0.000013  -0.000028   0.255473
    27  H    0.000004   0.000002  -0.001871   0.000000   0.000000  -0.021967
    28  H    0.000000   0.000005   0.001415   0.000000   0.000000  -0.022614
    29  H   -0.000001   0.000005   0.003592   0.000000  -0.000001  -0.022614
    30  H    0.000000  -0.022041   0.000004  -0.001864   0.000000  -0.000005
    31  H    0.000000  -0.022861   0.000000   0.001416   0.000000   0.000005
    32  H    0.000000  -0.022861  -0.000001   0.003600  -0.000001   0.000005
    33  H    0.000084   0.000069   0.000000   0.000452   0.260544   0.000034
    34  H    0.000452   0.000023   0.000003   0.000084   0.260544   0.000037
    35  H    0.000000   0.000023   0.000000   0.000000   0.000000   0.000037
    36  H    0.000000   0.000069   0.000000   0.000000   0.000000   0.000034
             25         26         27         28         29         30
     1  C   -0.000529  -0.000012   0.000000   0.000000   0.000000   0.000002
     2  C    0.000028   0.000000   0.000000   0.000000   0.000000   0.000000
     3  C   -0.000012  -0.000557  -0.000002   0.000006   0.000006   0.000000
     4  C    0.000000   0.000028  -0.000002   0.000000   0.000000   0.000000
     5  H   -0.000002   0.000000   0.000000   0.000000   0.000000   0.000000
     6  H    0.000000   0.000000   0.000000   0.000000   0.000000   0.000000
     7  H    0.000000   0.000000   0.000000   0.000000   0.000000   0.000000
     8  H    0.000000   0.000000   0.000000   0.000000   0.000000   0.000000
     9  H    0.000000  -0.000001   0.000000   0.000000   0.000000   0.000000
    10  H    0.000000  -0.000001   0.000000   0.000000   0.000000   0.000000
    11  O    0.000010  -0.000005   0.000000   0.000000   0.000000   0.000000
    12  O    0.000010  -0.000005   0.000000   0.000000   0.000000   0.000000
    13  O   -0.000004   0.000008   0.000004  -0.000001   0.000000   0.000000
    14  O   -0.098670   0.000013   0.000000   0.000000   0.000000  -0.001864
    15  O   -0.000009  -0.000028   0.000000  -0.000001   0.000000   0.000000
    16  Rh   0.001894   0.001582   0.000051   0.001542  -0.000038   0.000176
    17  Rh   0.001894   0.001582   0.000051  -0.000038   0.001542   0.000176
    18  O    0.000003  -0.099306  -0.001871   0.003592   0.001415   0.000004
    19  O   -0.000004   0.000008   0.000004   0.000000  -0.000001   0.000000
    20  C    0.258281  -0.000517   0.000002   0.000005   0.000005  -0.022041
    21  O    0.000003  -0.099306  -0.001871   0.001415   0.003592   0.000004
    22  O   -0.098670   0.000013   0.000000   0.000000   0.000000  -0.001864
    23  O   -0.000009  -0.000028   0.000000   0.000000  -0.000001   0.000000
    24  C   -0.000567   0.255473  -0.021967  -0.022614  -0.022614  -0.000005
    25  C    5.615853   0.000028   0.000000  -0.000001  -0.000001   0.364503
    26  C    0.000028   5.620453   0.364698   0.354858   0.354858  -0.000002
    27  H    0.000000   0.364698   0.459626  -0.018944  -0.018944   0.000000
    28  H   -0.000001   0.354858  -0.018944   0.459019  -0.019539   0.000000
    29  H   -0.000001   0.354858  -0.018944  -0.019539   0.459019   0.000000
    30  H    0.364503  -0.000002   0.000000   0.000000   0.000000   0.458082
    31  H    0.354967   0.000000   0.000000   0.000000   0.000000  -0.019026
    32  H    0.354967   0.000000   0.000000   0.000000   0.000000  -0.019026
    33  H   -0.000006   0.000000   0.000000   0.000000   0.000000   0.000000
    34  H    0.000000   0.000000   0.000000   0.000000   0.000000   0.000000
    35  H    0.000000   0.000000   0.000000   0.000000   0.000000   0.000000
    36  H   -0.000006   0.000000   0.000000   0.000000   0.000000   0.000000
             31         32         33         34         35         36
     1  C    0.000004   0.000004   0.000037   0.000034   0.000034   0.000037
     2  C   -0.000001  -0.000001   0.000000   0.000000   0.000000   0.000000
     3  C    0.000000   0.000000   0.000023   0.000069   0.000069   0.000023
     4  C    0.000000   0.000000   0.000000  -0.000006  -0.000006   0.000000
     5  H    0.000000   0.000000   0.000000   0.000000   0.000000   0.000000
     6  H    0.000000   0.000000   0.000000   0.000000   0.000000   0.000000
     7  H    0.000000   0.000000   0.000000   0.000000   0.000000   0.000000
     8  H    0.000000   0.000000   0.000000   0.000000   0.000000   0.000000
     9  H    0.000000   0.000000   0.000000   0.000000   0.000000   0.000000
    10  H    0.000000   0.000000   0.000000   0.000000   0.000000   0.000000
    11  O    0.000000   0.000000   0.000000   0.000000   0.000000   0.000003
    12  O    0.000000   0.000000   0.000003   0.000000   0.000000   0.000000
    13  O    0.000000   0.000000   0.000000   0.000000   0.000452   0.000084
    14  O    0.003600   0.001416   0.000000   0.000000   0.000084   0.000452
    15  O   -0.000001   0.000000   0.000000   0.000000   0.260544   0.260544
    16  Rh   0.001616   0.000038   0.000705   0.000705  -0.004567  -0.004567
    17  Rh   0.000038   0.001616  -0.004567  -0.004567   0.000705   0.000705
    18  O   -0.000001   0.000000   0.000000   0.000000   0.000003   0.000000
    19  O    0.000000   0.000000   0.000084   0.000452   0.000000   0.000000
    20  C   -0.022861  -0.022861   0.000069   0.000023   0.000023   0.000069
    21  O    0.000000  -0.000001   0.000000   0.000003   0.000000   0.000000
    22  O    0.001416   0.003600   0.000452   0.000084   0.000000   0.000000
    23  O    0.000000  -0.000001   0.260544   0.260544   0.000000   0.000000
    24  C    0.000005   0.000005   0.000034   0.000037   0.000037   0.000034
    25  C    0.354967   0.354967  -0.000006   0.000000   0.000000  -0.000006
    26  C    0.000000   0.000000   0.000000   0.000000   0.000000   0.000000
    27  H    0.000000   0.000000   0.000000   0.000000   0.000000   0.000000
    28  H    0.000000   0.000000   0.000000   0.000000   0.000000   0.000000
    29  H    0.000000   0.000000   0.000000   0.000000   0.000000   0.000000
    30  H   -0.019026  -0.019026   0.000000   0.000000   0.000000   0.000000
    31  H    0.459364  -0.019432   0.000000   0.000000   0.000000   0.000000
    32  H   -0.019432   0.459364   0.000000   0.000000   0.000000   0.000000
    33  H    0.000000   0.000000   0.358472  -0.029061   0.000000   0.000000
    34  H    0.000000   0.000000  -0.029061   0.358472   0.000000   0.000000
    35  H    0.000000   0.000000   0.000000   0.000000   0.358472  -0.029061
    36  H    0.000000   0.000000   0.000000   0.000000  -0.029061   0.358472
 Mulliken atomic charges:
              1
     1  C    0.436228
     2  C   -0.753835
     3  C    0.443409
     4  C   -0.753951
     5  H    0.239165
     6  H    0.240700
     7  H    0.240700
     8  H    0.240883
     9  H    0.240309
    10  H    0.240309
    11  O   -0.297638
    12  O   -0.297638
    13  O   -0.308989
    14  O   -0.308989
    15  O   -0.683149
    16  Rh   0.256066
    17  Rh   0.256066
    18  O   -0.297638
    19  O   -0.308989
    20  C    0.443409
    21  O   -0.297638
    22  O   -0.308989
    23  O   -0.683149
    24  C    0.436228
    25  C   -0.753951
    26  C   -0.753835
    27  H    0.239165
    28  H    0.240700
    29  H    0.240700
    30  H    0.240883
    31  H    0.240309
    32  H    0.240309
    33  H    0.413211
    34  H    0.413211
    35  H    0.413211
    36  H    0.413211
 Sum of Mulliken atomic charges =   0.00000
 Mulliken charges with hydrogens summed into heavy atoms:
              1
     1  C    0.436228
     2  C   -0.033271
     3  C    0.443409
     4  C   -0.032451
    11  O   -0.297638
    12  O   -0.297638
    13  O   -0.308989
    14  O   -0.308989
    15  O    0.143274
    16  Rh   0.256066
    17  Rh   0.256066
    18  O   -0.297638
    19  O   -0.308989
    20  C    0.443409
    21  O   -0.297638
    22  O   -0.308989
    23  O    0.143274
    24  C    0.436228
    25  C   -0.032451
    26  C   -0.033271
 Sum of Mulliken charges with hydrogens summed into heavy atoms =   0.00000
 Electronic spatial extent (au):  <R**2>=           5767.4841
 Charge=              0.0000 electrons
 Dipole moment (field-independent basis, Debye):
    X=              0.0000    Y=              0.0000    Z=              0.0000  Tot=              0.0000
 Quadrupole moment (field-independent basis, Debye-Ang):
   XX=           -126.5970   YY=           -134.2239   ZZ=           -112.5803
   XY=              0.0706   XZ=              0.0000   YZ=              0.0000
 Traceless Quadrupole moment (field-independent basis, Debye-Ang):
   XX=             -2.1300   YY=             -9.7569   ZZ=             11.8868
   XY=              0.0706   XZ=              0.0000   YZ=              0.0000
 Octapole moment (field-independent basis, Debye-Ang**2):
  XXX=              0.0000  YYY=              0.0000  ZZZ=              0.0000  XYY=              0.0000
  XXY=              0.0000  XXZ=              0.0000  XZZ=              0.0000  YZZ=              0.0000
  YYZ=              0.0000  XYZ=              0.0000
 Hexadecapole moment (field-independent basis, Debye-Ang**3):
 XXXX=          -2398.2805 YYYY=          -2407.9997 ZZZZ=           -801.4194 XXXY=              3.4005
 XXXZ=              0.0000 YYYX=             -3.4297 YYYZ=              0.0000 ZZZX=              0.0000
 ZZZY=              0.0000 XXYY=           -883.6007 XXZZ=           -731.5916 YYZZ=           -846.1379
 XXYZ=              0.0000 YYXZ=              0.0000 ZZXY=              0.5753
 N-N= 2.357743399111D+03 E-N=-7.687369417326D+03  KE= 1.137545890041D+03
 Symmetry AG   KE= 3.806814858200D+02
 Symmetry BG   KE= 1.908016950358D+02
 Symmetry AU   KE= 2.420506553545D+02
 Symmetry BU   KE= 3.240120538305D+02
 1\1\GINC-CASEGROUP1\FOpt\RBP86\LANL2DZ\C8H16O10Rh2\CASE\03-Dec-2012\0\
 \#BP86/LanL2DZ Opt=VTight Freq=HPModes Int=Ultrafine\\di-rhodium tetra
 -acetate dihydrate\\0,1\C,-0.0086365825,2.679439994,0.\C,-0.0610338295
 ,4.1977979746,0.\C,2.6802612931,0.009118887,0.\C,4.1982692357,0.062469
 2122,0.\H,-1.1167709425,4.5282412847,0.\H,0.4246702243,4.5933938617,0.
 9062346892\H,0.4246702243,4.5933938617,-0.9062346892\H,4.5282901954,1.
 1183302874,0.\H,4.5947940689,-0.423606928,0.9056185149\H,4.5947940689,
 -0.423606928,-0.9056185149\O,-0.0000196741,2.0763788898,-1.1677554914\
 O,-0.0000196741,2.0763788898,1.1677554914\O,2.0758198307,0.0003006407,
 -1.1672074877\O,-2.0758198307,-0.0003006407,-1.1672074877\O,0.,0.,-3.5
 001954645\Rh,0.,0.,-1.2251100273\Rh,0.,0.,1.2251100273\O,0.0000196741,
 -2.0763788898,-1.1677554914\O,2.0758198307,0.0003006407,1.1672074877\C
 ,-2.6802612931,-0.009118887,0.\O,0.0000196741,-2.0763788898,1.16775549
 14\O,-2.0758198307,-0.0003006407,1.1672074877\O,0.,0.,3.5001954645\C,0
 .0086365825,-2.679439994,0.\C,-4.1982692357,-0.0624692122,0.\C,0.06103
 38295,-4.1977979746,0.\H,1.1167709425,-4.5282412847,0.\H,-0.4246702243
 ,-4.5933938617,-0.9062346892\H,-0.4246702243,-4.5933938617,0.906234689
 2\H,-4.5282901954,-1.1183302874,0.\H,-4.5947940689,0.423606928,-0.9056
 185149\H,-4.5947940689,0.423606928,0.9056185149\H,-0.8215506233,-0.004
 7633267,4.0373440996\H,0.8215506233,0.0047633267,4.0373440996\H,0.8215
 506233,0.0047633267,-4.0373440996\H,-0.8215506233,-0.0047633267,-4.037
 3440996\\Version=AM64L-G09RevA.02\State=1-AG\HF=-1286.1063268\RMSD=1.7
 29e-09\RMSF=5.826e-08\Dipole=0.,0.,0.\Quadrupole=-1.5835708,-7.2539914
 ,8.8375623,0.052531,0.,0.\PG=C02H [C2(O1Rh1.Rh1O1),SGH(C8H4),X(H12O8)]
 \\@


 Life may have no meaning.  Or even worse, it may have a
 meaning of which I disapprove.
                                 -- Ashleigh Brilliant
 Job cpu time:  0 days  0 hours 13 minutes  8.0 seconds.
 File lengths (MBytes):  RWF=     49 Int=      0 D2E=      0 Chk=      6 Scr=      1
 Normal termination of Gaussian 09 at Mon Dec  3 17:11:06 2012.
 Link1:  Proceeding to internal job step number  2.
 ------------------------------------------------------------------
 #N Geom=AllCheck Guess=TCheck SCRF=Check GenChk RBP86/LANL2DZ Freq
 ------------------------------------------------------------------
 1/7=1,10=4,29=7,30=1,38=1,40=1/1,3;
 2/12=2,40=1/2;
 3/5=6,6=3,11=2,14=-4,16=1,25=1,30=1,70=2,71=2,74=404,75=-5,116=1/1,2,3;
 4/5=101/1;
 5/5=2,98=1/2;
 8/6=4,10=90,11=11/1;
 11/6=1,8=1,9=11,15=111,16=1/1,2,10;
 10/6=1/2;
 6/7=2,8=2,9=2,10=2,18=1,28=1/1;
 7/8=11,10=1,25=1/1,2,3,16;
 1/7=1,10=4,30=1/3;
 99//99;
 ----------------------------------
 di-rhodium tetra-acetate dihydrate
 ----------------------------------
 Redundant internal coordinates taken from checkpoint file:
 /home/case/fes/rh_acetate/Gau-29230.chk
 Charge =  0 Multiplicity = 1
 C,0,-0.0086365825,2.679439994,0.
 C,0,-0.0610338295,4.1977979746,0.
 C,0,2.6802612931,0.009118887,0.
 C,0,4.1982692357,0.0624692122,0.
 H,0,-1.1167709425,4.5282412847,0.
 H,0,0.4246702243,4.5933938617,0.9062346892
 H,0,0.4246702243,4.5933938617,-0.9062346892
 H,0,4.5282901954,1.1183302874,0.
 H,0,4.5947940689,-0.423606928,0.9056185149
 H,0,4.5947940689,-0.423606928,-0.9056185149
 O,0,-0.0000196741,2.0763788898,-1.1677554914
 O,0,-0.0000196741,2.0763788898,1.1677554914
 O,0,2.0758198307,0.0003006407,-1.1672074877
 O,0,-2.0758198307,-0.0003006407,-1.1672074877
 O,0,0.,0.,-3.5001954645
 Rh,0,0.,0.,-1.2251100273
 Rh,0,0.,0.,1.2251100273
 O,0,0.0000196741,-2.0763788898,-1.1677554914
 O,0,2.0758198307,0.0003006407,1.1672074877
 C,0,-2.6802612931,-0.009118887,0.
 O,0,0.0000196741,-2.0763788898,1.1677554914
 O,0,-2.0758198307,-0.0003006407,1.1672074877
 O,0,0.,0.,3.5001954645
 C,0,0.0086365825,-2.679439994,0.
 C,0,-4.1982692357,-0.0624692122,0.
 C,0,0.0610338295,-4.1977979746,0.
 H,0,1.1167709425,-4.5282412847,0.
 H,0,-0.4246702243,-4.5933938617,-0.9062346892
 H,0,-0.4246702243,-4.5933938617,0.9062346892
 H,0,-4.5282901954,-1.1183302874,0.
 H,0,-4.5947940689,0.423606928,-0.9056185149
 H,0,-4.5947940689,0.423606928,0.9056185149
 H,0,-0.8215506233,-0.0047633267,4.0373440996
 H,0,0.8215506233,0.0047633267,4.0373440996
 H,0,0.8215506233,0.0047633267,-4.0373440996
 H,0,-0.8215506233,-0.0047633267,-4.0373440996
 Recover connectivity data from disk.

 GradGradGradGradGradGradGradGradGradGradGradGradGradGradGradGradGradGrad
 Berny optimization.
 Initialization pass.
                           ----------------------------
                           !    Initial Parameters    !
                           ! (Angstroms and Degrees)  !
 --------------------------                            --------------------------
 ! Name  Definition              Value          Derivative Info.                !
 --------------------------------------------------------------------------------
 ! R1    R(1,2)                  1.5193         calculate D2E/DX2 analytically  !
 ! R2    R(1,11)                 1.3143         calculate D2E/DX2 analytically  !
 ! R3    R(1,12)                 1.3143         calculate D2E/DX2 analytically  !
 ! R4    R(2,5)                  1.1062         calculate D2E/DX2 analytically  !
 ! R5    R(2,6)                  1.1017         calculate D2E/DX2 analytically  !
 ! R6    R(2,7)                  1.1017         calculate D2E/DX2 analytically  !
 ! R7    R(3,4)                  1.5189         calculate D2E/DX2 analytically  !
 ! R8    R(3,13)                 1.3145         calculate D2E/DX2 analytically  !
 ! R9    R(3,19)                 1.3145         calculate D2E/DX2 analytically  !
 ! R10   R(4,8)                  1.1062         calculate D2E/DX2 analytically  !
 ! R11   R(4,9)                  1.1017         calculate D2E/DX2 analytically  !
 ! R12   R(4,10)                 1.1017         calculate D2E/DX2 analytically  !
 ! R13   R(11,16)                2.0772         calculate D2E/DX2 analytically  !
 ! R14   R(12,17)                2.0772         calculate D2E/DX2 analytically  !
 ! R15   R(13,16)                2.0766         calculate D2E/DX2 analytically  !
 ! R16   R(14,16)                2.0766         calculate D2E/DX2 analytically  !
 ! R17   R(14,20)                1.3145         calculate D2E/DX2 analytically  !
 ! R18   R(15,16)                2.2751         calculate D2E/DX2 analytically  !
 ! R19   R(15,35)                0.9816         calculate D2E/DX2 analytically  !
 ! R20   R(15,36)                0.9816         calculate D2E/DX2 analytically  !
 ! R21   R(16,17)                2.4502         calculate D2E/DX2 analytically  !
 ! R22   R(16,18)                2.0772         calculate D2E/DX2 analytically  !
 ! R23   R(17,19)                2.0766         calculate D2E/DX2 analytically  !
 ! R24   R(17,21)                2.0772         calculate D2E/DX2 analytically  !
 ! R25   R(17,22)                2.0766         calculate D2E/DX2 analytically  !
 ! R26   R(17,23)                2.2751         calculate D2E/DX2 analytically  !
 ! R27   R(18,24)                1.3143         calculate D2E/DX2 analytically  !
 ! R28   R(20,22)                1.3145         calculate D2E/DX2 analytically  !
 ! R29   R(20,25)                1.5189         calculate D2E/DX2 analytically  !
 ! R30   R(21,24)                1.3143         calculate D2E/DX2 analytically  !
 ! R31   R(23,33)                0.9816         calculate D2E/DX2 analytically  !
 ! R32   R(23,34)                0.9816         calculate D2E/DX2 analytically  !
 ! R33   R(24,26)                1.5193         calculate D2E/DX2 analytically  !
 ! R34   R(25,30)                1.1062         calculate D2E/DX2 analytically  !
 ! R35   R(25,31)                1.1017         calculate D2E/DX2 analytically  !
 ! R36   R(25,32)                1.1017         calculate D2E/DX2 analytically  !
 ! R37   R(26,27)                1.1062         calculate D2E/DX2 analytically  !
 ! R38   R(26,28)                1.1017         calculate D2E/DX2 analytically  !
 ! R39   R(26,29)                1.1017         calculate D2E/DX2 analytically  !
 ! A1    A(2,1,11)             117.3094         calculate D2E/DX2 analytically  !
 ! A2    A(2,1,12)             117.3094         calculate D2E/DX2 analytically  !
 ! A3    A(11,1,12)            125.3691         calculate D2E/DX2 analytically  !
 ! A4    A(1,2,5)              109.3564         calculate D2E/DX2 analytically  !
 ! A5    A(1,2,6)              110.1006         calculate D2E/DX2 analytically  !
 ! A6    A(1,2,7)              110.1006         calculate D2E/DX2 analytically  !
 ! A7    A(5,2,6)              108.2697         calculate D2E/DX2 analytically  !
 ! A8    A(5,2,7)              108.2697         calculate D2E/DX2 analytically  !
 ! A9    A(6,2,7)              110.6928         calculate D2E/DX2 analytically  !
 ! A10   A(4,3,13)             117.3737         calculate D2E/DX2 analytically  !
 ! A11   A(4,3,19)             117.3737         calculate D2E/DX2 analytically  !
 ! A12   A(13,3,19)            125.24           calculate D2E/DX2 analytically  !
 ! A13   A(3,4,8)              109.37           calculate D2E/DX2 analytically  !
 ! A14   A(3,4,9)              110.1339         calculate D2E/DX2 analytically  !
 ! A15   A(3,4,10)             110.1339         calculate D2E/DX2 analytically  !
 ! A16   A(8,4,9)              108.2855         calculate D2E/DX2 analytically  !
 ! A17   A(8,4,10)             108.2855         calculate D2E/DX2 analytically  !
 ! A18   A(9,4,10)             110.5814         calculate D2E/DX2 analytically  !
 ! A19   A(1,11,16)            118.8946         calculate D2E/DX2 analytically  !
 ! A20   A(1,12,17)            118.8946         calculate D2E/DX2 analytically  !
 ! A21   A(3,13,16)            118.9746         calculate D2E/DX2 analytically  !
 ! A22   A(16,14,20)           118.9746         calculate D2E/DX2 analytically  !
 ! A23   A(16,15,35)           123.1771         calculate D2E/DX2 analytically  !
 ! A24   A(16,15,36)           123.1771         calculate D2E/DX2 analytically  !
 ! A25   A(35,15,36)           113.6457         calculate D2E/DX2 analytically  !
 ! A26   A(11,16,13)            89.9481         calculate D2E/DX2 analytically  !
 ! A27   A(11,16,14)            89.9636         calculate D2E/DX2 analytically  !
 ! A28   A(11,16,15)            91.5822         calculate D2E/DX2 analytically  !
 ! A29   A(11,16,17)            88.4178         calculate D2E/DX2 analytically  !
 ! A30   A(13,16,15)            91.5978         calculate D2E/DX2 analytically  !
 ! A31   A(13,16,17)            88.4022         calculate D2E/DX2 analytically  !
 ! A32   A(13,16,18)            89.9636         calculate D2E/DX2 analytically  !
 ! A33   A(14,16,15)            91.5978         calculate D2E/DX2 analytically  !
 ! A34   A(14,16,17)            88.4022         calculate D2E/DX2 analytically  !
 ! A35   A(14,16,18)            89.9481         calculate D2E/DX2 analytically  !
 ! A36   A(15,16,18)            91.5822         calculate D2E/DX2 analytically  !
 ! A37   A(17,16,18)            88.4178         calculate D2E/DX2 analytically  !
 ! A38   A(12,17,16)            88.4178         calculate D2E/DX2 analytically  !
 ! A39   A(12,17,19)            89.9481         calculate D2E/DX2 analytically  !
 ! A40   A(12,17,22)            89.9636         calculate D2E/DX2 analytically  !
 ! A41   A(12,17,23)            91.5822         calculate D2E/DX2 analytically  !
 ! A42   A(16,17,19)            88.4022         calculate D2E/DX2 analytically  !
 ! A43   A(16,17,21)            88.4178         calculate D2E/DX2 analytically  !
 ! A44   A(16,17,22)            88.4022         calculate D2E/DX2 analytically  !
 ! A45   A(19,17,21)            89.9636         calculate D2E/DX2 analytically  !
 ! A46   A(19,17,23)            91.5978         calculate D2E/DX2 analytically  !
 ! A47   A(21,17,22)            89.9481         calculate D2E/DX2 analytically  !
 ! A48   A(21,17,23)            91.5822         calculate D2E/DX2 analytically  !
 ! A49   A(22,17,23)            91.5978         calculate D2E/DX2 analytically  !
 ! A50   A(16,18,24)           118.8946         calculate D2E/DX2 analytically  !
 ! A51   A(3,19,17)            118.9746         calculate D2E/DX2 analytically  !
 ! A52   A(14,20,22)           125.24           calculate D2E/DX2 analytically  !
 ! A53   A(14,20,25)           117.3737         calculate D2E/DX2 analytically  !
 ! A54   A(22,20,25)           117.3737         calculate D2E/DX2 analytically  !
 ! A55   A(17,21,24)           118.8946         calculate D2E/DX2 analytically  !
 ! A56   A(17,22,20)           118.9746         calculate D2E/DX2 analytically  !
 ! A57   A(17,23,33)           123.1771         calculate D2E/DX2 analytically  !
 ! A58   A(17,23,34)           123.1771         calculate D2E/DX2 analytically  !
 ! A59   A(33,23,34)           113.6457         calculate D2E/DX2 analytically  !
 ! A60   A(18,24,21)           125.3691         calculate D2E/DX2 analytically  !
 ! A61   A(18,24,26)           117.3094         calculate D2E/DX2 analytically  !
 ! A62   A(21,24,26)           117.3094         calculate D2E/DX2 analytically  !
 ! A63   A(20,25,30)           109.37           calculate D2E/DX2 analytically  !
 ! A64   A(20,25,31)           110.1339         calculate D2E/DX2 analytically  !
 ! A65   A(20,25,32)           110.1339         calculate D2E/DX2 analytically  !
 ! A66   A(30,25,31)           108.2855         calculate D2E/DX2 analytically  !
 ! A67   A(30,25,32)           108.2855         calculate D2E/DX2 analytically  !
 ! A68   A(31,25,32)           110.5814         calculate D2E/DX2 analytically  !
 ! A69   A(24,26,27)           109.3564         calculate D2E/DX2 analytically  !
 ! A70   A(24,26,28)           110.1006         calculate D2E/DX2 analytically  !
 ! A71   A(24,26,29)           110.1006         calculate D2E/DX2 analytically  !
 ! A72   A(27,26,28)           108.2697         calculate D2E/DX2 analytically  !
 ! A73   A(27,26,29)           108.2697         calculate D2E/DX2 analytically  !
 ! A74   A(28,26,29)           110.6928         calculate D2E/DX2 analytically  !
 ! D1    D(11,1,2,5)            89.4021         calculate D2E/DX2 analytically  !
 ! D2    D(11,1,2,6)          -151.7566         calculate D2E/DX2 analytically  !
 ! D3    D(11,1,2,7)           -29.4393         calculate D2E/DX2 analytically  !
 ! D4    D(12,1,2,5)           -89.4021         calculate D2E/DX2 analytically  !
 ! D5    D(12,1,2,6)            29.4393         calculate D2E/DX2 analytically  !
 ! D6    D(12,1,2,7)           151.7566         calculate D2E/DX2 analytically  !
 ! D7    D(2,1,11,16)         -177.7629         calculate D2E/DX2 analytically  !
 ! D8    D(12,1,11,16)           0.9341         calculate D2E/DX2 analytically  !
 ! D9    D(2,1,12,17)          177.7629         calculate D2E/DX2 analytically  !
 ! D10   D(11,1,12,17)          -0.9341         calculate D2E/DX2 analytically  !
 ! D11   D(13,3,4,8)            89.3905         calculate D2E/DX2 analytically  !
 ! D12   D(13,3,4,9)          -151.7204         calculate D2E/DX2 analytically  !
 ! D13   D(13,3,4,10)          -29.4986         calculate D2E/DX2 analytically  !
 ! D14   D(19,3,4,8)           -89.3905         calculate D2E/DX2 analytically  !
 ! D15   D(19,3,4,9)            29.4986         calculate D2E/DX2 analytically  !
 ! D16   D(19,3,4,10)          151.7204         calculate D2E/DX2 analytically  !
 ! D17   D(4,3,13,16)         -177.729          calculate D2E/DX2 analytically  !
 ! D18   D(19,3,13,16)           0.9456         calculate D2E/DX2 analytically  !
 ! D19   D(4,3,19,17)          177.729          calculate D2E/DX2 analytically  !
 ! D20   D(13,3,19,17)          -0.9456         calculate D2E/DX2 analytically  !
 ! D21   D(1,11,16,13)         -88.8318         calculate D2E/DX2 analytically  !
 ! D22   D(1,11,16,14)          87.9738         calculate D2E/DX2 analytically  !
 ! D23   D(1,11,16,15)         179.5712         calculate D2E/DX2 analytically  !
 ! D24   D(1,11,16,17)          -0.4288         calculate D2E/DX2 analytically  !
 ! D25   D(1,11,18,24)          -0.845          calculate D2E/DX2 analytically  !
 ! D26   D(1,12,17,16)           0.4288         calculate D2E/DX2 analytically  !
 ! D27   D(1,12,17,19)          88.8318         calculate D2E/DX2 analytically  !
 ! D28   D(1,12,17,22)         -87.9738         calculate D2E/DX2 analytically  !
 ! D29   D(1,12,17,23)        -179.5712         calculate D2E/DX2 analytically  !
 ! D30   D(1,12,21,24)           0.845          calculate D2E/DX2 analytically  !
 ! D31   D(3,13,16,11)          87.9836         calculate D2E/DX2 analytically  !
 ! D32   D(3,13,16,15)         179.565          calculate D2E/DX2 analytically  !
 ! D33   D(3,13,16,17)          -0.435          calculate D2E/DX2 analytically  !
 ! D34   D(3,13,16,18)         -88.8532         calculate D2E/DX2 analytically  !
 ! D35   D(20,14,16,11)        -88.8532         calculate D2E/DX2 analytically  !
 ! D36   D(20,14,16,15)        179.565          calculate D2E/DX2 analytically  !
 ! D37   D(20,14,16,17)         -0.435          calculate D2E/DX2 analytically  !
 ! D38   D(20,14,16,18)         87.9836         calculate D2E/DX2 analytically  !
 ! D39   D(16,14,20,22)          0.9456         calculate D2E/DX2 analytically  !
 ! D40   D(16,14,20,25)       -177.729          calculate D2E/DX2 analytically  !
 ! D41   D(35,15,16,11)         89.6683         calculate D2E/DX2 analytically  !
 ! D42   D(35,15,16,13)         -0.3239         calculate D2E/DX2 analytically  !
 ! D43   D(35,15,16,14)        179.6761         calculate D2E/DX2 analytically  !
 ! D44   D(35,15,16,18)        -90.3317         calculate D2E/DX2 analytically  !
 ! D45   D(36,15,16,11)        -90.3317         calculate D2E/DX2 analytically  !
 ! D46   D(36,15,16,13)        179.6761         calculate D2E/DX2 analytically  !
 ! D47   D(36,15,16,14)         -0.3239         calculate D2E/DX2 analytically  !
 ! D48   D(36,15,16,18)         89.6683         calculate D2E/DX2 analytically  !
 ! D49   D(35,15,17,12)         89.6683         calculate D2E/DX2 analytically  !
 ! D50   D(35,15,17,19)         -0.3239         calculate D2E/DX2 analytically  !
 ! D51   D(35,15,17,21)        -90.3317         calculate D2E/DX2 analytically  !
 ! D52   D(35,15,17,22)        179.6761         calculate D2E/DX2 analytically  !
 ! D53   D(36,15,17,12)        -90.3317         calculate D2E/DX2 analytically  !
 ! D54   D(36,15,17,19)        179.6761         calculate D2E/DX2 analytically  !
 ! D55   D(36,15,17,21)         89.6683         calculate D2E/DX2 analytically  !
 ! D56   D(36,15,17,22)         -0.3239         calculate D2E/DX2 analytically  !
 ! D57   D(35,15,23,33)        180.0            calculate D2E/DX2 analytically  !
 ! D58   D(35,15,23,34)          0.0            calculate D2E/DX2 analytically  !
 ! D59   D(36,15,23,33)          0.0            calculate D2E/DX2 analytically  !
 ! D60   D(36,15,23,34)        180.0            calculate D2E/DX2 analytically  !
 ! D61   D(11,16,17,12)          0.0            calculate D2E/DX2 analytically  !
 ! D62   D(11,16,17,19)        -89.9922         calculate D2E/DX2 analytically  !
 ! D63   D(11,16,17,21)        180.0            calculate D2E/DX2 analytically  !
 ! D64   D(11,16,17,22)         90.0078         calculate D2E/DX2 analytically  !
 ! D65   D(13,16,17,12)         89.9922         calculate D2E/DX2 analytically  !
 ! D66   D(13,16,17,19)          0.0            calculate D2E/DX2 analytically  !
 ! D67   D(13,16,17,21)        -90.0078         calculate D2E/DX2 analytically  !
 ! D68   D(13,16,17,22)        180.0            calculate D2E/DX2 analytically  !
 ! D69   D(14,16,17,12)        -90.0078         calculate D2E/DX2 analytically  !
 ! D70   D(14,16,17,19)       -180.0            calculate D2E/DX2 analytically  !
 ! D71   D(14,16,17,21)         89.9922         calculate D2E/DX2 analytically  !
 ! D72   D(14,16,17,22)          0.0            calculate D2E/DX2 analytically  !
 ! D73   D(18,16,17,12)        180.0            calculate D2E/DX2 analytically  !
 ! D74   D(18,16,17,19)         90.0078         calculate D2E/DX2 analytically  !
 ! D75   D(18,16,17,21)          0.0            calculate D2E/DX2 analytically  !
 ! D76   D(18,16,17,22)        -89.9922         calculate D2E/DX2 analytically  !
 ! D77   D(13,16,18,24)         87.9738         calculate D2E/DX2 analytically  !
 ! D78   D(14,16,18,24)        -88.8318         calculate D2E/DX2 analytically  !
 ! D79   D(15,16,18,24)        179.5712         calculate D2E/DX2 analytically  !
 ! D80   D(17,16,18,24)         -0.4288         calculate D2E/DX2 analytically  !
 ! D81   D(11,16,23,33)         90.3317         calculate D2E/DX2 analytically  !
 ! D82   D(11,16,23,34)        -89.6683         calculate D2E/DX2 analytically  !
 ! D83   D(13,16,23,33)       -179.6761         calculate D2E/DX2 analytically  !
 ! D84   D(13,16,23,34)          0.3239         calculate D2E/DX2 analytically  !
 ! D85   D(14,16,23,33)          0.3239         calculate D2E/DX2 analytically  !
 ! D86   D(14,16,23,34)       -179.6761         calculate D2E/DX2 analytically  !
 ! D87   D(18,16,23,33)        -89.6683         calculate D2E/DX2 analytically  !
 ! D88   D(18,16,23,34)         90.3317         calculate D2E/DX2 analytically  !
 ! D89   D(12,17,19,3)         -87.9836         calculate D2E/DX2 analytically  !
 ! D90   D(16,17,19,3)           0.435          calculate D2E/DX2 analytically  !
 ! D91   D(21,17,19,3)          88.8532         calculate D2E/DX2 analytically  !
 ! D92   D(23,17,19,3)        -179.565          calculate D2E/DX2 analytically  !
 ! D93   D(3,19,22,20)           0.8571         calculate D2E/DX2 analytically  !
 ! D94   D(16,17,21,24)          0.4288         calculate D2E/DX2 analytically  !
 ! D95   D(19,17,21,24)        -87.9738         calculate D2E/DX2 analytically  !
 ! D96   D(22,17,21,24)         88.8318         calculate D2E/DX2 analytically  !
 ! D97   D(23,17,21,24)       -179.5712         calculate D2E/DX2 analytically  !
 ! D98   D(12,17,22,20)         88.8532         calculate D2E/DX2 analytically  !
 ! D99   D(16,17,22,20)          0.435          calculate D2E/DX2 analytically  !
 ! D100  D(21,17,22,20)        -87.9836         calculate D2E/DX2 analytically  !
 ! D101  D(23,17,22,20)       -179.565          calculate D2E/DX2 analytically  !
 ! D102  D(12,17,23,33)         90.3317         calculate D2E/DX2 analytically  !
 ! D103  D(12,17,23,34)        -89.6683         calculate D2E/DX2 analytically  !
 ! D104  D(19,17,23,33)       -179.6761         calculate D2E/DX2 analytically  !
 ! D105  D(19,17,23,34)          0.3239         calculate D2E/DX2 analytically  !
 ! D106  D(21,17,23,33)        -89.6683         calculate D2E/DX2 analytically  !
 ! D107  D(21,17,23,34)         90.3317         calculate D2E/DX2 analytically  !
 ! D108  D(22,17,23,33)          0.3239         calculate D2E/DX2 analytically  !
 ! D109  D(22,17,23,34)       -179.6761         calculate D2E/DX2 analytically  !
 ! D110  D(16,18,24,21)          0.9341         calculate D2E/DX2 analytically  !
 ! D111  D(16,18,24,26)       -177.7629         calculate D2E/DX2 analytically  !
 ! D112  D(14,20,22,17)         -0.9456         calculate D2E/DX2 analytically  !
 ! D113  D(25,20,22,17)        177.729          calculate D2E/DX2 analytically  !
 ! D114  D(14,20,25,30)         89.3905         calculate D2E/DX2 analytically  !
 ! D115  D(14,20,25,31)        -29.4986         calculate D2E/DX2 analytically  !
 ! D116  D(14,20,25,32)       -151.7204         calculate D2E/DX2 analytically  !
 ! D117  D(22,20,25,30)        -89.3905         calculate D2E/DX2 analytically  !
 ! D118  D(22,20,25,31)        151.7204         calculate D2E/DX2 analytically  !
 ! D119  D(22,20,25,32)         29.4986         calculate D2E/DX2 analytically  !
 ! D120  D(17,21,24,18)         -0.9341         calculate D2E/DX2 analytically  !
 ! D121  D(17,21,24,26)        177.7629         calculate D2E/DX2 analytically  !
 ! D122  D(18,24,26,27)         89.4021         calculate D2E/DX2 analytically  !
 ! D123  D(18,24,26,28)        -29.4393         calculate D2E/DX2 analytically  !
 ! D124  D(18,24,26,29)       -151.7566         calculate D2E/DX2 analytically  !
 ! D125  D(21,24,26,27)        -89.4021         calculate D2E/DX2 analytically  !
 ! D126  D(21,24,26,28)        151.7566         calculate D2E/DX2 analytically  !
 ! D127  D(21,24,26,29)         29.4393         calculate D2E/DX2 analytically  !
 --------------------------------------------------------------------------------
 Trust Radius=3.00D-01 FncErr=1.00D-07 GrdErr=1.00D-07
 Number of steps in this run=   2 maximum allowed number of steps=   2.
 GradGradGradGradGradGradGradGradGradGradGradGradGradGradGradGradGradGrad

                          Input orientation:                          
 ---------------------------------------------------------------------
 Center     Atomic      Atomic             Coordinates (Angstroms)
 Number     Number       Type             X           Y           Z
 ---------------------------------------------------------------------
      1          6           0       -0.008637    2.679440    0.000000
      2          6           0       -0.061034    4.197798    0.000000
      3          6           0        2.680261    0.009119    0.000000
      4          6           0        4.198269    0.062469    0.000000
      5          1           0       -1.116771    4.528241    0.000000
      6          1           0        0.424670    4.593394    0.906235
      7          1           0        0.424670    4.593394   -0.906235
      8          1           0        4.528290    1.118330    0.000000
      9          1           0        4.594794   -0.423607    0.905619
     10          1           0        4.594794   -0.423607   -0.905619
     11          8           0       -0.000020    2.076379   -1.167755
     12          8           0       -0.000020    2.076379    1.167755
     13          8           0        2.075820    0.000301   -1.167207
     14          8           0       -2.075820   -0.000301   -1.167207
     15          8           0        0.000000    0.000000   -3.500195
     16         45           0        0.000000    0.000000   -1.225110
     17         45           0        0.000000    0.000000    1.225110
     18          8           0        0.000020   -2.076379   -1.167755
     19          8           0        2.075820    0.000301    1.167207
     20          6           0       -2.680261   -0.009119    0.000000
     21          8           0        0.000020   -2.076379    1.167755
     22          8           0       -2.075820   -0.000301    1.167207
     23          8           0        0.000000    0.000000    3.500195
     24          6           0        0.008637   -2.679440    0.000000
     25          6           0       -4.198269   -0.062469    0.000000
     26          6           0        0.061034   -4.197798    0.000000
     27          1           0        1.116771   -4.528241    0.000000
     28          1           0       -0.424670   -4.593394   -0.906235
     29          1           0       -0.424670   -4.593394    0.906235
     30          1           0       -4.528290   -1.118330    0.000000
     31          1           0       -4.594794    0.423607   -0.905619
     32          1           0       -4.594794    0.423607    0.905619
     33          1           0       -0.821551   -0.004763    4.037344
     34          1           0        0.821551    0.004763    4.037344
     35          1           0        0.821551    0.004763   -4.037344
     36          1           0       -0.821551   -0.004763   -4.037344
 ---------------------------------------------------------------------
                    Distance matrix (angstroms):
                    1          2          3          4          5
     1  C    0.000000
     2  C    1.519262   0.000000
     3  C    3.789563   5.005970   0.000000
     4  C    4.954452   5.936548   1.518945   0.000000
     5  H    2.155465   1.106243   5.902535   6.942101   0.000000
     6  H    2.161535   1.101665   5.188885   5.965785   1.789287
     7  H    2.161535   1.101665   5.188885   5.965785   1.789287
     8  H    4.797996   5.526755   2.155356   1.106235   6.595014
     9  H    5.624999   6.622255   2.161673   1.101656   7.613338
    10  H    5.624999   6.622255   2.161673   1.101656   7.613338
    11  O    1.314310   2.422353   3.580660   4.800533   2.936395
    12  O    1.314310   2.422353   3.580660   4.800533   2.936395
    13  O    3.589585   4.852577   1.314458   2.423021   5.661913
    14  O    3.580032   4.800601   4.897221   6.382046   4.773871
    15  O    4.408043   5.465949   4.408543   5.466327   5.831253
    16  Rh   2.946246   4.373343   2.946995   4.373815   4.822141
    17  Rh   2.946246   4.373343   2.946995   4.373815   4.822141
    18  O    4.897095   6.382216   3.591190   4.854238   6.799403
    19  O    3.589585   4.852577   1.314458   2.423021   5.661913
    20  C    3.790241   4.955654   5.360554   6.878903   4.799181
    21  O    4.897095   6.382216   3.591190   4.854238   6.799403
    22  O    3.580032   4.800601   4.897221   6.382046   4.773871
    23  O    4.408043   5.465949   4.408543   5.466327   5.831253
    24  C    5.358908   6.877591   3.790241   5.007104   7.295013
    25  C    5.007104   5.938568   6.878903   8.397468   5.529037
    26  C    6.877591   8.396483   4.955654   5.938568   8.805168
    27  H    7.295013   8.805168   4.799181   5.529037   9.327839
    28  H    7.340876   8.845256   5.625388   6.623435   9.192633
    29  H    7.340876   8.845256   5.625388   6.623435   9.192633
    30  H    5.903417   6.943889   7.296188   8.806085   6.597138
    31  H    5.190546   5.968220   7.342913   8.846950   5.455714
    32  H    5.190546   5.968220   7.342913   8.846950   5.455714
    33  H    4.915885   5.877079   5.344439   6.442302   6.077453
    34  H    4.913578   5.887329   4.444657   5.263621   6.365461
    35  H    4.913578   5.887329   4.444657   5.263621   6.365461
    36  H    4.915885   5.877079   5.344439   6.442302   6.077453
                    6          7          8          9         10
     6  H    0.000000
     7  H    1.812469   0.000000
     8  H    5.453167   5.453167   0.000000
     9  H    6.523820   6.770749   1.789452   0.000000
    10  H    6.770749   6.523820   1.789452   1.811237   0.000000
    11  O    3.288945   2.565954   4.773584   5.626822   5.237457
    12  O    2.565954   3.288945   4.773584   5.237457   5.626822
    13  O    5.303015   4.887833   2.937171   3.289610   2.567753
    14  O    5.626157   5.236658   6.799116   6.998063   6.689148
    15  O    6.379360   5.292282   5.831590   6.379872   5.293714
    16  Rh   5.081559   4.623991   4.822548   5.082478   4.625327
    17  Rh   4.623991   5.081559   4.822548   4.625327   5.082478
    18  O    6.997688   6.688392   5.663484   5.304949   4.890023
    19  O    4.887833   5.303015   2.937171   2.567753   3.289610
    20  C    5.625388   5.625388   7.296188   7.342913   7.342913
    21  O    6.688392   6.997688   5.663484   4.890023   5.304949
    22  O    5.236658   5.626157   6.799116   6.689148   6.998063
    23  O    5.292282   6.379360   5.831590   5.293714   6.379872
    24  C    7.340876   7.340876   5.903417   5.190546   5.190546
    25  C    6.623435   6.623435   8.806085   8.846950   8.846950
    26  C    8.845256   8.845256   6.943889   5.968220   5.968220
    27  H    9.192633   9.192633   6.597138   5.455714   5.455714
    28  H    9.402313   9.225966   7.614254   6.772367   6.525500
    29  H    9.225966   9.402313   7.614254   6.525500   6.772367
    30  H    7.614254   7.614254   9.328682   9.194208   9.194208
    31  H    6.772367   6.525500   9.194208   9.404620   9.228559
    32  H    6.525500   6.772367   9.194208   9.228559   9.404620
    33  H    5.700874   6.865500   6.795755   6.270560   7.344733
    34  H    5.569281   6.756628   5.592861   4.922253   6.233277
    35  H    6.756628   5.569281   5.592861   6.233277   4.922253
    36  H    6.865500   5.700874   6.795755   7.344733   6.270560
                   11         12         13         14         15
    11  O    0.000000
    12  O    2.335511   0.000000
    13  O    2.935849   3.751168   0.000000
    14  O    2.936247   3.751479   4.151640   0.000000
    15  O    3.122759   5.108925   3.122797   3.122797   0.000000
    16  Rh   2.077171   3.168147   2.076627   2.076627   2.275085
    17  Rh   3.168147   2.077171   3.167367   3.167367   4.725305
    18  O    4.152758   4.764453   2.936247   2.935849   3.122759
    19  O    3.751168   2.935849   2.334415   4.762941   5.108197
    20  C    3.591190   3.591190   4.897221   1.314458   4.408543
    21  O    4.764453   4.152758   3.751479   3.751168   5.108925
    22  O    3.751479   2.936247   4.762941   2.334415   5.108197
    23  O    5.108925   3.122759   5.108197   5.108197   7.000391
    24  C    4.897095   4.897095   3.580032   3.589585   4.408043
    25  C    4.854238   4.854238   6.382046   2.423021   5.466327
    26  C    6.382216   6.382216   4.800601   4.852577   5.465949
    27  H    6.799403   6.799403   4.773871   5.661913   5.831253
    28  H    6.688392   6.997688   5.236658   4.887833   5.292282
    29  H    6.997688   6.688392   5.626157   5.303015   6.379360
    30  H    5.663484   5.663484   6.799116   2.937171   5.831590
    31  H    4.890023   5.304949   6.689148   2.567753   5.293714
    32  H    5.304949   4.890023   6.998063   3.289610   6.379872
    33  H    5.665609   3.638764   5.956689   5.353557   7.582181
    34  H    5.662122   3.633333   5.353557   5.956689   7.582181
    35  H    3.633333   5.662122   3.132235   4.078292   0.981579
    36  H    3.638764   5.665609   4.078292   3.132235   0.981579
                   16         17         18         19         20
    16  Rh   0.000000
    17  Rh   2.450220   0.000000
    18  O    2.077171   3.168147   0.000000
    19  O    3.167367   2.076627   3.751479   0.000000
    20  C    2.946995   2.946995   3.580660   4.897221   0.000000
    21  O    3.168147   2.077171   2.335511   2.936247   3.580660
    22  O    3.167367   2.076627   3.751168   4.151640   1.314458
    23  O    4.725305   2.275085   5.108925   3.122797   4.408543
    24  C    2.946246   2.946246   1.314310   3.580032   3.789563
    25  C    4.373815   4.373815   4.800533   6.382046   1.518945
    26  C    4.373343   4.373343   2.422353   4.800601   5.005970
    27  H    4.822141   4.822141   2.936395   4.773871   5.902535
    28  H    4.623991   5.081559   2.565954   5.626157   5.188885
    29  H    5.081559   4.623991   3.288945   5.236658   5.188885
    30  H    4.822548   4.822548   4.773584   6.799116   2.155356
    31  H    4.625327   5.082478   5.237457   6.998063   2.161673
    32  H    5.082478   4.625327   5.626822   6.689148   2.161673
    33  H    5.326199   2.929783   5.662122   4.078292   4.444657
    34  H    5.326199   2.929783   5.665609   3.132235   5.344439
    35  H    2.929783   5.326199   3.638764   5.353557   5.344439
    36  H    2.929783   5.326199   3.633333   5.956689   4.444657
                   21         22         23         24         25
    21  O    0.000000
    22  O    2.935849   0.000000
    23  O    3.122759   3.122797   0.000000
    24  C    1.314310   3.589585   4.408043   0.000000
    25  C    4.800533   2.423021   5.466327   4.954452   0.000000
    26  C    2.422353   4.852577   5.465949   1.519262   5.936548
    27  H    2.936395   5.661913   5.831253   2.155465   6.942101
    28  H    3.288945   5.303015   6.379360   2.161535   5.965785
    29  H    2.565954   4.887833   5.292282   2.161535   5.965785
    30  H    4.773584   2.937171   5.831590   4.797996   1.106235
    31  H    5.626822   3.289610   6.379872   5.624999   1.101656
    32  H    5.237457   2.567753   5.293714   5.624999   1.101656
    33  H    3.633333   3.132235   0.981579   4.913578   5.263621
    34  H    3.638764   4.078292   0.981579   4.915885   6.442302
    35  H    5.665609   5.956689   7.582181   4.915885   6.442302
    36  H    5.662122   5.353557   7.582181   4.913578   5.263621
                   26         27         28         29         30
    26  C    0.000000
    27  H    1.106243   0.000000
    28  H    1.101665   1.789287   0.000000
    29  H    1.101665   1.789287   1.812469   0.000000
    30  H    5.526755   6.595014   5.453167   5.453167   0.000000
    31  H    6.622255   7.613338   6.523820   6.770749   1.789452
    32  H    6.622255   7.613338   6.770749   6.523820   1.789452
    33  H    5.887329   6.365461   6.756628   5.569281   5.592861
    34  H    5.877079   6.077453   6.865500   5.700874   6.795755
    35  H    5.877079   6.077453   5.700874   6.865500   6.795755
    36  H    5.887329   6.365461   5.569281   6.756628   5.592861
                   31         32         33         34         35
    31  H    0.000000
    32  H    1.811237   0.000000
    33  H    6.233277   4.922253   0.000000
    34  H    7.344733   6.270560   1.643129   0.000000
    35  H    6.270560   7.344733   8.240174   8.074688   0.000000
    36  H    4.922253   6.233277   8.074688   8.240174   1.643129
                   36
    36  H    0.000000
 Stoichiometry    C8H16O10Rh2
 Framework group  C2H[C2(ORh.RhO),SGH(C8H4),X(H12O8)]
 Deg. of freedom    28
 Full point group                 C2H     NOp   4
 Largest Abelian subgroup         C2H     NOp   4
 Largest concise Abelian subgroup C2H     NOp   4
                         Standard orientation:                         
 ---------------------------------------------------------------------
 Center     Atomic      Atomic             Coordinates (Angstroms)
 Number     Number       Type             X           Y           Z
 ---------------------------------------------------------------------
      1          6           0       -0.008611    2.679440    0.000000
      2          6           0       -0.060994    4.197799    0.000000
      3          6           0        2.680261    0.009093    0.000000
      4          6           0        4.198270    0.062429    0.000000
      5          1           0       -1.116728    4.528252    0.000000
      6          1           0        0.424714    4.593390    0.906235
      7          1           0        0.424714    4.593390   -0.906235
      8          1           0        4.528301    1.118287    0.000000
      9          1           0        4.594790   -0.423650    0.905619
     10          1           0        4.594790   -0.423650   -0.905619
     11          8           0        0.000000    2.076379   -1.167755
     12          8           0        0.000000    2.076379    1.167755
     13          8           0        2.075820    0.000281   -1.167207
     14          8           0       -2.075820   -0.000281   -1.167207
     15          8           0        0.000000    0.000000   -3.500195
     16         45           0        0.000000    0.000000   -1.225110
     17         45           0        0.000000    0.000000    1.225110
     18          8           0        0.000000   -2.076379   -1.167755
     19          8           0        2.075820    0.000281    1.167207
     20          6           0       -2.680261   -0.009093    0.000000
     21          8           0        0.000000   -2.076379    1.167755
     22          8           0       -2.075820   -0.000281    1.167207
     23          8           0        0.000000    0.000000    3.500195
     24          6           0        0.008611   -2.679440    0.000000
     25          6           0       -4.198270   -0.062429    0.000000
     26          6           0        0.060994   -4.197799    0.000000
     27          1           0        1.116728   -4.528252    0.000000
     28          1           0       -0.424714   -4.593390   -0.906235
     29          1           0       -0.424714   -4.593390    0.906235
     30          1           0       -4.528301   -1.118287    0.000000
     31          1           0       -4.594790    0.423650   -0.905619
     32          1           0       -4.594790    0.423650    0.905619
     33          1           0       -0.821551   -0.004756    4.037344
     34          1           0        0.821551    0.004756    4.037344
     35          1           0        0.821551    0.004756   -4.037344
     36          1           0       -0.821551   -0.004756   -4.037344
 ---------------------------------------------------------------------
 Rotational constants (GHZ):      0.2593921      0.2590111      0.2521354
 Standard basis: LANL2DZ (5D, 7F)
 There are    73 symmetry adapted basis functions of AG  symmetry.
 There are    46 symmetry adapted basis functions of BG  symmetry.
 There are    49 symmetry adapted basis functions of AU  symmetry.
 There are    70 symmetry adapted basis functions of BU  symmetry.
 Integral buffers will be    131072 words long.
 Raffenetti 2 integral format.
 Two-electron integral symmetry is turned on.
   238 basis functions,   612 primitive gaussians,   242 cartesian basis functions
    89 alpha electrons       89 beta electrons
       nuclear repulsion energy      2357.7433991113 Hartrees.
 NAtoms=   36 NActive=   36 NUniq=   13 SFac= 3.00D+00 NAtFMM=   80 NAOKFM=F Big=F
 One-electron integrals computed using PRISM.
   4 Symmetry operations used in ECPInt.
 ECPInt:  NShTT=    9591 NPrTT=   68474 LenC2=    9087 LenP2D=   38378.
 LDataN:  DoStor=T MaxTD1= 5 Len=  102
 NBasis=   238 RedAO= T  NBF=    73    46    49    70
 NBsUse=   238 1.00D-06 NBFU=    73    46    49    70
 Defaulting to unpruned grid for atomic number  45.
 Initial guess read from the checkpoint file:  /home/case/fes/rh_acetate/Gau-2923
 0.chk
 B after Tr=     0.000000    0.000000    0.000000
         Rot=    1.000000    0.000000    0.000000    0.000000 Ang=   0.00 deg.
 Initial guess orbital symmetries:
       Occupied  (AU) (AG) (AG) (AU) (BG) (BU) (AG) (AU) (BG) (BU)
                 (AG) (BU) (AG) (BU) (BU) (AG) (BU) (AG) (AG) (AU)
                 (BU) (BU) (BG) (BG) (AG) (AU) (AG) (BU) (AG) (BU)
                 (AU) (AG) (AU) (BG) (AU) (BG) (AG) (BU) (AG) (BU)
                 (BU) (BG) (AG) (AG) (BU) (BU) (AU) (AU) (BG) (BG)
                 (AG) (BU) (BU) (AG) (BU) (BU) (AG) (AG) (AG) (AU)
                 (AU) (BG) (AU) (BG) (AG) (BU) (BU) (AG) (AG) (AU)
                 (AG) (BU) (BG) (BU) (AU) (BU) (BG) (AU) (BG) (BG)
                 (BG) (AU) (AG) (BU) (BU) (AG) (AU) (BG) (BG)
       Virtual   (AU) (AU) (AG) (BU) (BU) (AG) (AG) (AU) (AG) (BU)
                 (BU) (BG) (AG) (BG) (BU) (AG) (AU) (AG) (BG) (BU)
                 (BU) (AG) (AG) (AU) (AG) (BU) (BU) (BG) (BG) (AU)
                 (AG) (BU) (AG) (BU) (AU) (AG) (BU) (BU) (AG) (AG)
                 (AU) (BG) (AG) (AU) (BG) (AG) (BU) (BU) (AG) (BU)
                 (BU) (BG) (AU) (BG) (AU) (BU) (BG) (BU) (BG) (AG)
                 (AU) (BU) (AG) (BU) (AG) (BG) (BG) (AU) (BU) (BU)
                 (AG) (AG) (AU) (AG) (AU) (AG) (AU) (BU) (BG) (BU)
                 (AG) (BG) (BU) (AU) (AG) (AU) (BU) (BU) (BG) (AG)
                 (AU) (BU) (BG) (AG) (AU) (BG) (AG) (BU) (BG) (BU)
                 (BU) (AG) (AU) (BU) (AG) (BG) (BG) (AU) (AG) (BU)
                 (AG) (BG) (AG) (AG) (AG) (BU) (BU) (AG) (AU) (AU)
                 (BU) (BG) (BU) (AG) (BG) (AG) (AU) (BG) (BU) (AU)
                 (AU) (BU) (AG) (BG) (BU) (BU) (AG) (AG) (AU) (BU)
                 (BU) (AU) (BG) (BG) (AG) (AU) (AG) (AU) (AG)
 Requested convergence on RMS density matrix=1.00D-08 within 128 cycles.
 Requested convergence on MAX density matrix=1.00D-06.
 Requested convergence on             energy=1.00D-06.
 No special actions if energy rises.
 Defaulting to unpruned grid for atomic number  45.
 Defaulting to unpruned grid for atomic number  45.
 Defaulting to unpruned grid for atomic number  45.
 Defaulting to unpruned grid for atomic number  45.
 Defaulting to unpruned grid for atomic number  45.
 Defaulting to unpruned grid for atomic number  45.
 SCF Done:  E(RB-P86) =  -1286.10632675     A.U. after    1 cycles
             Convg  =    0.1366D-08             -V/T =  2.1306
 Range of M.O.s used for correlation:     1   238
 NBasis=   238 NAE=    89 NBE=    89 NFC=     0 NFV=     0
 NROrb=    238 NOA=    89 NOB=    89 NVA=   149 NVB=   149

 **** Warning!!: The smallest alpha delta epsilon is  0.65513513D-01

   4 Symmetry operations used in ECPInt.
 ECPInt:  NShTT=    9591 NPrTT=   68474 LenC2=    9087 LenP2D=   38378.
 LDataN:  DoStor=T MaxTD1= 6 Len=  172
 Number of processors reduced to   3 by ecpmxn.
 Symmetrizing basis deriv contribution to polar:
 IMax=3 JMax=2 DiffMx= 0.00D+00
 G2DrvN: will do    19 centers at a time, making    2 passes doing MaxLOS=2.
 Calling FoFCou, ICntrl=  3507 FMM=F I1Cent=   0 AccDes= 0.00D+00.
 Defaulting to unpruned grid for atomic number  45.
 Defaulting to unpruned grid for atomic number  45.
 Defaulting to unpruned grid for atomic number  45.
 Defaulting to unpruned grid for atomic number  45.
 Defaulting to unpruned grid for atomic number  45.
 Defaulting to unpruned grid for atomic number  45.
 Calling FoFCou, ICntrl=  3507 FMM=F I1Cent=   0 AccDes= 0.00D+00.
 FoFDir/FoFCou used for L=0 through L=2.
 End of G2Drv Frequency-dependent properties file   721 does not exist.
 End of G2Drv Frequency-dependent properties file   722 does not exist.
          IDoAtm=111111111111111111111111111111111111
          Differentiating once with respect to electric field.
                with respect to dipole field.
          Differentiating once with respect to nuclear coordinates.
 Defaulting to unpruned grid for atomic number  45.
 Defaulting to unpruned grid for atomic number  45.
 Defaulting to unpruned grid for atomic number  45.
 Defaulting to unpruned grid for atomic number  45.
 Defaulting to unpruned grid for atomic number  45.
 Defaulting to unpruned grid for atomic number  45.
 Defaulting to unpruned grid for atomic number  45.
          There are    42 degrees of freedom in the 1st order CPHF.  IDoFFX=4.
     42 vectors produced by pass  0 Test12= 3.16D-14 2.38D-09 XBig12= 6.34D+02 1.65D+01.
 AX will form    42 AO Fock derivatives at one time.
     42 vectors produced by pass  1 Test12= 3.16D-14 2.38D-09 XBig12= 2.26D+03 1.79D+01.
     42 vectors produced by pass  2 Test12= 3.16D-14 2.38D-09 XBig12= 2.98D+02 2.44D+00.
     42 vectors produced by pass  3 Test12= 3.16D-14 2.38D-09 XBig12= 2.79D+00 2.55D-01.
     42 vectors produced by pass  4 Test12= 3.16D-14 2.38D-09 XBig12= 1.31D-02 1.31D-02.
     42 vectors produced by pass  5 Test12= 3.16D-14 2.38D-09 XBig12= 3.64D-05 5.34D-04.
     26 vectors produced by pass  6 Test12= 3.16D-14 2.38D-09 XBig12= 1.14D-07 4.63D-05.
      5 vectors produced by pass  7 Test12= 3.16D-14 2.38D-09 XBig12= 1.40D-10 1.38D-06.
      3 vectors produced by pass  8 Test12= 3.16D-14 2.38D-09 XBig12= 1.95D-13 3.88D-08.
 Inverted reduced A of dimension   286 with in-core refinement.
 Isotropic polarizability for W=    0.000000      199.09 Bohr**3.
 End of Minotr Frequency-dependent properties file   721 does not exist.
 End of Minotr Frequency-dependent properties file   722 does not exist.

 **********************************************************************

            Population analysis using the SCF density.

 **********************************************************************

 Orbital symmetries:
       Occupied  (AU) (AG) (AG) (AU) (BG) (BU) (AG) (AU) (BG) (BU)
                 (AG) (BU) (AG) (BU) (BU) (AG) (BU) (AG) (AG) (AU)
                 (BU) (BU) (BG) (BG) (AG) (AU) (AG) (BU) (AG) (BU)
                 (AU) (AG) (AU) (BG) (AU) (BG) (AG) (BU) (AG) (BU)
                 (BU) (BG) (AG) (AG) (BU) (BU) (AU) (AU) (BG) (BG)
                 (AG) (BU) (BU) (AG) (BU) (BU) (AG) (AG) (AG) (AU)
                 (AU) (BG) (AU) (BG) (AG) (BU) (BU) (AG) (AG) (AU)
                 (AG) (BU) (BG) (BU) (AU) (BU) (BG) (AU) (BG) (BG)
                 (BG) (AU) (AG) (BU) (BU) (AG) (AU) (BG) (BG)
       Virtual   (AU) (AU) (AG) (BU) (BU) (AG) (AG) (AU) (AG) (BU)
                 (BU) (BG) (AG) (BG) (BU) (AG) (AU) (AG) (BG) (BU)
                 (BU) (AG) (AG) (AU) (AG) (BU) (BU) (BG) (BG) (AU)
                 (AG) (BU) (AG) (BU) (AU) (AG) (BU) (BU) (AG) (AG)
                 (AU) (BG) (AG) (AU) (BG) (AG) (BU) (BU) (AG) (BU)
                 (BU) (BG) (AU) (BG) (AU) (BU) (BG) (BU) (BG) (AG)
                 (AU) (BU) (AG) (BU) (AG) (BG) (BG) (AU) (BU) (BU)
                 (AG) (AG) (AU) (AG) (AU) (AG) (AU) (BU) (BG) (BU)
                 (AG) (BG) (BU) (AU) (AG) (AU) (BU) (BU) (BG) (AG)
                 (AU) (BU) (BG) (AG) (AU) (BG) (AG) (BU) (BG) (BU)
                 (BU) (AG) (AU) (BU) (AG) (BG) (BG) (AU) (AG) (BU)
                 (AG) (BG) (AG) (AG) (AG) (BU) (BU) (AG) (AU) (AU)
                 (BU) (BG) (BU) (AG) (BG) (AG) (AU) (BG) (BU) (AU)
                 (AU) (BU) (AG) (BG) (BU) (BU) (AG) (AG) (AU) (BU)
                 (BU) (AU) (BG) (BG) (AG) (AU) (AG) (AU) (AG)
 The electronic state is 1-AG.
 Alpha  occ. eigenvalues --  -18.81206 -18.81206 -18.78960 -18.78960 -18.78960
 Alpha  occ. eigenvalues --  -18.78960 -18.78523 -18.78522 -18.78522 -18.78522
 Alpha  occ. eigenvalues --  -10.03504 -10.03504 -10.03041 -10.03041  -9.91434
 Alpha  occ. eigenvalues --   -9.91434  -9.91094  -9.91094  -2.95707  -2.95480
 Alpha  occ. eigenvalues --   -1.79984  -1.79855  -1.79778  -1.79648  -1.79123
 Alpha  occ. eigenvalues --   -1.77281  -0.97988  -0.97571  -0.97327  -0.97199
 Alpha  occ. eigenvalues --   -0.94685  -0.94683  -0.89784  -0.89323  -0.89189
 Alpha  occ. eigenvalues --   -0.88936  -0.66867  -0.66691  -0.66478  -0.66330
 Alpha  occ. eigenvalues --   -0.51780  -0.51741  -0.49723  -0.48950  -0.48003
 Alpha  occ. eigenvalues --   -0.47599  -0.44628  -0.43857  -0.41747  -0.41327
 Alpha  occ. eigenvalues --   -0.41153  -0.40377  -0.40168  -0.40133  -0.39875
 Alpha  occ. eigenvalues --   -0.39698  -0.39347  -0.39168  -0.37343  -0.36701
 Alpha  occ. eigenvalues --   -0.35451  -0.35126  -0.35094  -0.34783  -0.34273
 Alpha  occ. eigenvalues --   -0.32929  -0.32591  -0.31587  -0.29997  -0.29518
 Alpha  occ. eigenvalues --   -0.29241  -0.27706  -0.27662  -0.26110  -0.25666
 Alpha  occ. eigenvalues --   -0.25655  -0.25171  -0.24971  -0.24923  -0.23982
 Alpha  occ. eigenvalues --   -0.23448  -0.23123  -0.20759  -0.19761  -0.19085
 Alpha  occ. eigenvalues --   -0.18915  -0.14608  -0.14435  -0.13865
 Alpha virt. eigenvalues --   -0.07313  -0.07162  -0.05859  -0.03522  -0.03152
 Alpha virt. eigenvalues --   -0.02478  -0.02091  -0.01324  -0.01029   0.03346
 Alpha virt. eigenvalues --    0.03938   0.05301   0.05971   0.07188   0.10933
 Alpha virt. eigenvalues --    0.11529   0.11920   0.12378   0.13809   0.13960
 Alpha virt. eigenvalues --    0.14011   0.14446   0.14994   0.15061   0.15296
 Alpha virt. eigenvalues --    0.16380   0.16763   0.16840   0.17334   0.17362
 Alpha virt. eigenvalues --    0.18155   0.18248   0.18470   0.18539   0.19636
 Alpha virt. eigenvalues --    0.20000   0.20490   0.20885   0.23044   0.24371
 Alpha virt. eigenvalues --    0.25485   0.26866   0.27096   0.27326   0.27572
 Alpha virt. eigenvalues --    0.28028   0.28997   0.29360   0.29988   0.31149
 Alpha virt. eigenvalues --    0.31403   0.32210   0.32392   0.32518   0.34696
 Alpha virt. eigenvalues --    0.36506   0.36678   0.36803   0.37567   0.38985
 Alpha virt. eigenvalues --    0.39532   0.40250   0.40255   0.40653   0.44059
 Alpha virt. eigenvalues --    0.45776   0.46121   0.46953   0.49692   0.50793
 Alpha virt. eigenvalues --    0.50817   0.52545   0.52623   0.55575   0.55581
 Alpha virt. eigenvalues --    0.60134   0.62630   0.64337   0.64743   0.64949
 Alpha virt. eigenvalues --    0.65865   0.67291   0.67936   0.71201   0.74435
 Alpha virt. eigenvalues --    0.75227   0.75260   0.75833   0.76628   0.76833
 Alpha virt. eigenvalues --    0.79140   0.81446   0.83165   0.84587   0.84780
 Alpha virt. eigenvalues --    0.85308   0.86215   0.86628   0.87223   0.87397
 Alpha virt. eigenvalues --    0.89879   0.90689   0.91260   0.92628   0.92761
 Alpha virt. eigenvalues --    0.93337   0.93450   0.94539   0.95345   0.97517
 Alpha virt. eigenvalues --    0.99704   1.00202   1.00207   1.01097   1.01762
 Alpha virt. eigenvalues --    1.02374   1.03762   1.04532   1.05326   1.06049
 Alpha virt. eigenvalues --    1.07347   1.07791   1.08781   1.08783   1.09554
 Alpha virt. eigenvalues --    1.13246   1.15117   1.18112   1.18471   1.19404
 Alpha virt. eigenvalues --    1.22359   1.27241   1.27773   1.32441   1.36062
 Alpha virt. eigenvalues --    1.37863   1.37912   1.69003   1.77699   1.78406
 Alpha virt. eigenvalues --    1.80755   1.84656   1.89939   1.90288   2.00161
 Alpha virt. eigenvalues --    2.03261   2.11049   5.91730   7.26024
          Condensed to atoms (all electrons):
              1          2          3          4          5          6
     1  C    4.915428   0.255473   0.002503  -0.000567  -0.021967  -0.022614
     2  C    0.255473   5.620453  -0.000517   0.000028   0.364698   0.354858
     3  C    0.002503  -0.000517   4.890411   0.258281   0.000002   0.000005
     4  C   -0.000567   0.000028   0.258281   5.615853   0.000000  -0.000001
     5  H   -0.021967   0.364698   0.000002   0.000000   0.459626  -0.018944
     6  H   -0.022614   0.354858   0.000005  -0.000001  -0.018944   0.459019
     7  H   -0.022614   0.354858   0.000005  -0.000001  -0.018944  -0.019539
     8  H   -0.000005  -0.000002  -0.022041   0.364503   0.000000   0.000000
     9  H    0.000005   0.000000  -0.022861   0.354967   0.000000   0.000000
    10  H    0.000005   0.000000  -0.022861   0.354967   0.000000   0.000000
    11  O    0.329080  -0.099306   0.000348   0.000003  -0.001871   0.001415
    12  O    0.329080  -0.099306   0.000348   0.000003  -0.001871   0.003592
    13  O   -0.000174   0.000013   0.336285  -0.098670   0.000000   0.000000
    14  O    0.000315   0.000008  -0.000136  -0.000004   0.000004   0.000000
    15  O   -0.000769  -0.000028  -0.000926  -0.000009   0.000000   0.000000
    16  Rh  -0.099935   0.001582  -0.099315   0.001894   0.000051  -0.000038
    17  Rh  -0.099935   0.001582  -0.099315   0.001894   0.000051   0.001542
    18  O   -0.000133  -0.000005  -0.000123   0.000010   0.000000   0.000000
    19  O   -0.000174   0.000013   0.336285  -0.098670   0.000000   0.000000
    20  C    0.002485  -0.000557  -0.000713  -0.000012  -0.000002   0.000006
    21  O   -0.000133  -0.000005  -0.000123   0.000010   0.000000   0.000000
    22  O    0.000315   0.000008  -0.000136  -0.000004   0.000004  -0.000001
    23  O   -0.000769  -0.000028  -0.000926  -0.000009   0.000000  -0.000001
    24  C   -0.000738  -0.000012   0.002485  -0.000529   0.000000   0.000000
    25  C   -0.000529   0.000028  -0.000012   0.000000  -0.000002   0.000000
    26  C   -0.000012   0.000000  -0.000557   0.000028   0.000000   0.000000
    27  H    0.000000   0.000000  -0.000002  -0.000002   0.000000   0.000000
    28  H    0.000000   0.000000   0.000006   0.000000   0.000000   0.000000
    29  H    0.000000   0.000000   0.000006   0.000000   0.000000   0.000000
    30  H    0.000002   0.000000   0.000000   0.000000   0.000000   0.000000
    31  H    0.000004  -0.000001   0.000000   0.000000   0.000000   0.000000
    32  H    0.000004  -0.000001   0.000000   0.000000   0.000000   0.000000
    33  H    0.000037   0.000000   0.000023   0.000000   0.000000   0.000000
    34  H    0.000034   0.000000   0.000069  -0.000006   0.000000   0.000000
    35  H    0.000034   0.000000   0.000069  -0.000006   0.000000   0.000000
    36  H    0.000037   0.000000   0.000023   0.000000   0.000000   0.000000
              7          8          9         10         11         12
     1  C   -0.022614  -0.000005   0.000005   0.000005   0.329080   0.329080
     2  C    0.354858  -0.000002   0.000000   0.000000  -0.099306  -0.099306
     3  C    0.000005  -0.022041  -0.022861  -0.022861   0.000348   0.000348
     4  C   -0.000001   0.364503   0.354967   0.354967   0.000003   0.000003
     5  H   -0.018944   0.000000   0.000000   0.000000  -0.001871  -0.001871
     6  H   -0.019539   0.000000   0.000000   0.000000   0.001415   0.003592
     7  H    0.459019   0.000000   0.000000   0.000000   0.003592   0.001415
     8  H    0.000000   0.458082  -0.019026  -0.019026   0.000004   0.000004
     9  H    0.000000  -0.019026   0.459364  -0.019432   0.000000  -0.000001
    10  H    0.000000  -0.019026  -0.019432   0.459364  -0.000001   0.000000
    11  O    0.003592   0.000004   0.000000  -0.000001   7.950748  -0.053997
    12  O    0.001415   0.000004  -0.000001   0.000000  -0.053997   7.950748
    13  O    0.000000  -0.001864   0.001416   0.003600  -0.002209   0.000014
    14  O   -0.000001   0.000000   0.000000   0.000000  -0.002196   0.000012
    15  O   -0.000001   0.000000   0.000000  -0.000001  -0.002071  -0.000003
    16  Rh   0.001542   0.000176   0.000038   0.001616   0.206327  -0.030737
    17  Rh  -0.000038   0.000176   0.001616   0.000038  -0.030737   0.206327
    18  O    0.000000   0.000000   0.000000   0.000000  -0.001252  -0.000014
    19  O    0.000000  -0.001864   0.003600   0.001416   0.000014  -0.002209
    20  C    0.000006   0.000000   0.000000   0.000000  -0.000123  -0.000123
    21  O    0.000000   0.000000   0.000000   0.000000  -0.000014  -0.001252
    22  O    0.000000   0.000000   0.000000   0.000000   0.000012  -0.002196
    23  O    0.000000   0.000000  -0.000001   0.000000  -0.000003  -0.002071
    24  C    0.000000   0.000002   0.000004   0.000004  -0.000133  -0.000133
    25  C    0.000000   0.000000   0.000000   0.000000   0.000010   0.000010
    26  C    0.000000   0.000000  -0.000001  -0.000001  -0.000005  -0.000005
    27  H    0.000000   0.000000   0.000000   0.000000   0.000000   0.000000
    28  H    0.000000   0.000000   0.000000   0.000000   0.000000   0.000000
    29  H    0.000000   0.000000   0.000000   0.000000   0.000000   0.000000
    30  H    0.000000   0.000000   0.000000   0.000000   0.000000   0.000000
    31  H    0.000000   0.000000   0.000000   0.000000   0.000000   0.000000
    32  H    0.000000   0.000000   0.000000   0.000000   0.000000   0.000000
    33  H    0.000000   0.000000   0.000000   0.000000   0.000000   0.000003
    34  H    0.000000   0.000000   0.000000   0.000000   0.000000   0.000000
    35  H    0.000000   0.000000   0.000000   0.000000   0.000000   0.000000
    36  H    0.000000   0.000000   0.000000   0.000000   0.000003   0.000000
             13         14         15         16         17         18
     1  C   -0.000174   0.000315  -0.000769  -0.099935  -0.099935  -0.000133
     2  C    0.000013   0.000008  -0.000028   0.001582   0.001582  -0.000005
     3  C    0.336285  -0.000136  -0.000926  -0.099315  -0.099315  -0.000123
     4  C   -0.098670  -0.000004  -0.000009   0.001894   0.001894   0.000010
     5  H    0.000000   0.000004   0.000000   0.000051   0.000051   0.000000
     6  H    0.000000   0.000000   0.000000  -0.000038   0.001542   0.000000
     7  H    0.000000  -0.000001  -0.000001   0.001542  -0.000038   0.000000
     8  H   -0.001864   0.000000   0.000000   0.000176   0.000176   0.000000
     9  H    0.001416   0.000000   0.000000   0.000038   0.001616   0.000000
    10  H    0.003600   0.000000  -0.000001   0.001616   0.000038   0.000000
    11  O   -0.002209  -0.002196  -0.002071   0.206327  -0.030737  -0.001252
    12  O    0.000014   0.000012  -0.000003  -0.030737   0.206327  -0.000014
    13  O    7.959794  -0.001261  -0.003137   0.200467  -0.028014  -0.002196
    14  O   -0.001261   7.959794  -0.003137   0.200467  -0.028014  -0.002209
    15  O   -0.003137  -0.003137   8.138408   0.055090  -0.017551  -0.002071
    16  Rh   0.200467   0.200467   0.055090  16.643588  -0.240778   0.206327
    17  Rh  -0.028014  -0.028014  -0.017551  -0.240778  16.643588  -0.030737
    18  O   -0.002196  -0.002209  -0.002071   0.206327  -0.030737   7.950748
    19  O   -0.055798  -0.000014   0.000000  -0.028014   0.200467   0.000012
    20  C   -0.000136   0.336285  -0.000926  -0.099315  -0.099315   0.000348
    21  O    0.000012   0.000014  -0.000003  -0.030737   0.206327  -0.053997
    22  O   -0.000014  -0.055798   0.000000  -0.028014   0.200467   0.000014
    23  O    0.000000   0.000000   0.000000  -0.017551   0.055090  -0.000003
    24  C    0.000315  -0.000174  -0.000769  -0.099935  -0.099935   0.329080
    25  C   -0.000004  -0.098670  -0.000009   0.001894   0.001894   0.000003
    26  C    0.000008   0.000013  -0.000028   0.001582   0.001582  -0.099306
    27  H    0.000004   0.000000   0.000000   0.000051   0.000051  -0.001871
    28  H   -0.000001   0.000000  -0.000001   0.001542  -0.000038   0.003592
    29  H    0.000000   0.000000   0.000000  -0.000038   0.001542   0.001415
    30  H    0.000000  -0.001864   0.000000   0.000176   0.000176   0.000004
    31  H    0.000000   0.003600  -0.000001   0.001616   0.000038  -0.000001
    32  H    0.000000   0.001416   0.000000   0.000038   0.001616   0.000000
    33  H    0.000000   0.000000   0.000000   0.000705  -0.004567   0.000000
    34  H    0.000000   0.000000   0.000000   0.000705  -0.004567   0.000000
    35  H    0.000452   0.000084   0.260544  -0.004567   0.000705   0.000003
    36  H    0.000084   0.000452   0.260544  -0.004567   0.000705   0.000000
             19         20         21         22         23         24
     1  C   -0.000174   0.002485  -0.000133   0.000315  -0.000769  -0.000738
     2  C    0.000013  -0.000557  -0.000005   0.000008  -0.000028  -0.000012
     3  C    0.336285  -0.000713  -0.000123  -0.000136  -0.000926   0.002485
     4  C   -0.098670  -0.000012   0.000010  -0.000004  -0.000009  -0.000529
     5  H    0.000000  -0.000002   0.000000   0.000004   0.000000   0.000000
     6  H    0.000000   0.000006   0.000000  -0.000001  -0.000001   0.000000
     7  H    0.000000   0.000006   0.000000   0.000000   0.000000   0.000000
     8  H   -0.001864   0.000000   0.000000   0.000000   0.000000   0.000002
     9  H    0.003600   0.000000   0.000000   0.000000  -0.000001   0.000004
    10  H    0.001416   0.000000   0.000000   0.000000   0.000000   0.000004
    11  O    0.000014  -0.000123  -0.000014   0.000012  -0.000003  -0.000133
    12  O   -0.002209  -0.000123  -0.001252  -0.002196  -0.002071  -0.000133
    13  O   -0.055798  -0.000136   0.000012  -0.000014   0.000000   0.000315
    14  O   -0.000014   0.336285   0.000014  -0.055798   0.000000  -0.000174
    15  O    0.000000  -0.000926  -0.000003   0.000000   0.000000  -0.000769
    16  Rh  -0.028014  -0.099315  -0.030737  -0.028014  -0.017551  -0.099935
    17  Rh   0.200467  -0.099315   0.206327   0.200467   0.055090  -0.099935
    18  O    0.000012   0.000348  -0.053997   0.000014  -0.000003   0.329080
    19  O    7.959794  -0.000136  -0.002196  -0.001261  -0.003137   0.000315
    20  C   -0.000136   4.890411   0.000348   0.336285  -0.000926   0.002503
    21  O   -0.002196   0.000348   7.950748  -0.002209  -0.002071   0.329080
    22  O   -0.001261   0.336285  -0.002209   7.959794  -0.003137  -0.000174
    23  O   -0.003137  -0.000926  -0.002071  -0.003137   8.138408  -0.000769
    24  C    0.000315   0.002503   0.329080  -0.000174  -0.000769   4.915428
    25  C   -0.000004   0.258281   0.000003  -0.098670  -0.000009  -0.000567
    26  C    0.000008  -0.000517  -0.099306   0.000013  -0.000028   0.255473
    27  H    0.000004   0.000002  -0.001871   0.000000   0.000000  -0.021967
    28  H    0.000000   0.000005   0.001415   0.000000   0.000000  -0.022614
    29  H   -0.000001   0.000005   0.003592   0.000000  -0.000001  -0.022614
    30  H    0.000000  -0.022041   0.000004  -0.001864   0.000000  -0.000005
    31  H    0.000000  -0.022861   0.000000   0.001416   0.000000   0.000005
    32  H    0.000000  -0.022861  -0.000001   0.003600  -0.000001   0.000005
    33  H    0.000084   0.000069   0.000000   0.000452   0.260544   0.000034
    34  H    0.000452   0.000023   0.000003   0.000084   0.260544   0.000037
    35  H    0.000000   0.000023   0.000000   0.000000   0.000000   0.000037
    36  H    0.000000   0.000069   0.000000   0.000000   0.000000   0.000034
             25         26         27         28         29         30
     1  C   -0.000529  -0.000012   0.000000   0.000000   0.000000   0.000002
     2  C    0.000028   0.000000   0.000000   0.000000   0.000000   0.000000
     3  C   -0.000012  -0.000557  -0.000002   0.000006   0.000006   0.000000
     4  C    0.000000   0.000028  -0.000002   0.000000   0.000000   0.000000
     5  H   -0.000002   0.000000   0.000000   0.000000   0.000000   0.000000
     6  H    0.000000   0.000000   0.000000   0.000000   0.000000   0.000000
     7  H    0.000000   0.000000   0.000000   0.000000   0.000000   0.000000
     8  H    0.000000   0.000000   0.000000   0.000000   0.000000   0.000000
     9  H    0.000000  -0.000001   0.000000   0.000000   0.000000   0.000000
    10  H    0.000000  -0.000001   0.000000   0.000000   0.000000   0.000000
    11  O    0.000010  -0.000005   0.000000   0.000000   0.000000   0.000000
    12  O    0.000010  -0.000005   0.000000   0.000000   0.000000   0.000000
    13  O   -0.000004   0.000008   0.000004  -0.000001   0.000000   0.000000
    14  O   -0.098670   0.000013   0.000000   0.000000   0.000000  -0.001864
    15  O   -0.000009  -0.000028   0.000000  -0.000001   0.000000   0.000000
    16  Rh   0.001894   0.001582   0.000051   0.001542  -0.000038   0.000176
    17  Rh   0.001894   0.001582   0.000051  -0.000038   0.001542   0.000176
    18  O    0.000003  -0.099306  -0.001871   0.003592   0.001415   0.000004
    19  O   -0.000004   0.000008   0.000004   0.000000  -0.000001   0.000000
    20  C    0.258281  -0.000517   0.000002   0.000005   0.000005  -0.022041
    21  O    0.000003  -0.099306  -0.001871   0.001415   0.003592   0.000004
    22  O   -0.098670   0.000013   0.000000   0.000000   0.000000  -0.001864
    23  O   -0.000009  -0.000028   0.000000   0.000000  -0.000001   0.000000
    24  C   -0.000567   0.255473  -0.021967  -0.022614  -0.022614  -0.000005
    25  C    5.615853   0.000028   0.000000  -0.000001  -0.000001   0.364503
    26  C    0.000028   5.620453   0.364698   0.354858   0.354858  -0.000002
    27  H    0.000000   0.364698   0.459626  -0.018944  -0.018944   0.000000
    28  H   -0.000001   0.354858  -0.018944   0.459019  -0.019539   0.000000
    29  H   -0.000001   0.354858  -0.018944  -0.019539   0.459019   0.000000
    30  H    0.364503  -0.000002   0.000000   0.000000   0.000000   0.458082
    31  H    0.354967   0.000000   0.000000   0.000000   0.000000  -0.019026
    32  H    0.354967   0.000000   0.000000   0.000000   0.000000  -0.019026
    33  H   -0.000006   0.000000   0.000000   0.000000   0.000000   0.000000
    34  H    0.000000   0.000000   0.000000   0.000000   0.000000   0.000000
    35  H    0.000000   0.000000   0.000000   0.000000   0.000000   0.000000
    36  H   -0.000006   0.000000   0.000000   0.000000   0.000000   0.000000
             31         32         33         34         35         36
     1  C    0.000004   0.000004   0.000037   0.000034   0.000034   0.000037
     2  C   -0.000001  -0.000001   0.000000   0.000000   0.000000   0.000000
     3  C    0.000000   0.000000   0.000023   0.000069   0.000069   0.000023
     4  C    0.000000   0.000000   0.000000  -0.000006  -0.000006   0.000000
     5  H    0.000000   0.000000   0.000000   0.000000   0.000000   0.000000
     6  H    0.000000   0.000000   0.000000   0.000000   0.000000   0.000000
     7  H    0.000000   0.000000   0.000000   0.000000   0.000000   0.000000
     8  H    0.000000   0.000000   0.000000   0.000000   0.000000   0.000000
     9  H    0.000000   0.000000   0.000000   0.000000   0.000000   0.000000
    10  H    0.000000   0.000000   0.000000   0.000000   0.000000   0.000000
    11  O    0.000000   0.000000   0.000000   0.000000   0.000000   0.000003
    12  O    0.000000   0.000000   0.000003   0.000000   0.000000   0.000000
    13  O    0.000000   0.000000   0.000000   0.000000   0.000452   0.000084
    14  O    0.003600   0.001416   0.000000   0.000000   0.000084   0.000452
    15  O   -0.000001   0.000000   0.000000   0.000000   0.260544   0.260544
    16  Rh   0.001616   0.000038   0.000705   0.000705  -0.004567  -0.004567
    17  Rh   0.000038   0.001616  -0.004567  -0.004567   0.000705   0.000705
    18  O   -0.000001   0.000000   0.000000   0.000000   0.000003   0.000000
    19  O    0.000000   0.000000   0.000084   0.000452   0.000000   0.000000
    20  C   -0.022861  -0.022861   0.000069   0.000023   0.000023   0.000069
    21  O    0.000000  -0.000001   0.000000   0.000003   0.000000   0.000000
    22  O    0.001416   0.003600   0.000452   0.000084   0.000000   0.000000
    23  O    0.000000  -0.000001   0.260544   0.260544   0.000000   0.000000
    24  C    0.000005   0.000005   0.000034   0.000037   0.000037   0.000034
    25  C    0.354967   0.354967  -0.000006   0.000000   0.000000  -0.000006
    26  C    0.000000   0.000000   0.000000   0.000000   0.000000   0.000000
    27  H    0.000000   0.000000   0.000000   0.000000   0.000000   0.000000
    28  H    0.000000   0.000000   0.000000   0.000000   0.000000   0.000000
    29  H    0.000000   0.000000   0.000000   0.000000   0.000000   0.000000
    30  H   -0.019026  -0.019026   0.000000   0.000000   0.000000   0.000000
    31  H    0.459364  -0.019432   0.000000   0.000000   0.000000   0.000000
    32  H   -0.019432   0.459364   0.000000   0.000000   0.000000   0.000000
    33  H    0.000000   0.000000   0.358472  -0.029061   0.000000   0.000000
    34  H    0.000000   0.000000  -0.029061   0.358472   0.000000   0.000000
    35  H    0.000000   0.000000   0.000000   0.000000   0.358472  -0.029061
    36  H    0.000000   0.000000   0.000000   0.000000  -0.029061   0.358472
 Mulliken atomic charges:
              1
     1  C    0.436228
     2  C   -0.753835
     3  C    0.443409
     4  C   -0.753951
     5  H    0.239165
     6  H    0.240700
     7  H    0.240700
     8  H    0.240883
     9  H    0.240309
    10  H    0.240309
    11  O   -0.297638
    12  O   -0.297638
    13  O   -0.308989
    14  O   -0.308989
    15  O   -0.683149
    16  Rh   0.256066
    17  Rh   0.256066
    18  O   -0.297638
    19  O   -0.308989
    20  C    0.443409
    21  O   -0.297638
    22  O   -0.308989
    23  O   -0.683149
    24  C    0.436228
    25  C   -0.753951
    26  C   -0.753835
    27  H    0.239165
    28  H    0.240700
    29  H    0.240700
    30  H    0.240883
    31  H    0.240309
    32  H    0.240309
    33  H    0.413211
    34  H    0.413211
    35  H    0.413211
    36  H    0.413211
 Sum of Mulliken atomic charges =   0.00000
 Mulliken charges with hydrogens summed into heavy atoms:
              1
     1  C    0.436228
     2  C   -0.033271
     3  C    0.443409
     4  C   -0.032451
    11  O   -0.297638
    12  O   -0.297638
    13  O   -0.308989
    14  O   -0.308989
    15  O    0.143274
    16  Rh   0.256066
    17  Rh   0.256066
    18  O   -0.297638
    19  O   -0.308989
    20  C    0.443409
    21  O   -0.297638
    22  O   -0.308989
    23  O    0.143274
    24  C    0.436228
    25  C   -0.032451
    26  C   -0.033271
 Sum of Mulliken charges with hydrogens summed into heavy atoms =   0.00000
 APT atomic charges:
              1
     1  C    0.757458
     2  C   -0.091129
     3  C    0.764035
     4  C   -0.090329
     5  H    0.018682
     6  H    0.025970
     7  H    0.025970
     8  H    0.019728
     9  H    0.026195
    10  H    0.026195
    11  O   -0.587458
    12  O   -0.587458
    13  O   -0.586614
    14  O   -0.586614
    15  O   -0.506239
    16  Rh   0.864296
    17  Rh   0.864296
    18  O   -0.587458
    19  O   -0.586614
    20  C    0.764035
    21  O   -0.587458
    22  O   -0.586614
    23  O   -0.506239
    24  C    0.757458
    25  C   -0.090329
    26  C   -0.091129
    27  H    0.018682
    28  H    0.025970
    29  H    0.025970
    30  H    0.019728
    31  H    0.026195
    32  H    0.026195
    33  H    0.253652
    34  H    0.253652
    35  H    0.253652
    36  H    0.253652
 Sum of APT charges=  -0.00002
 APT Atomic charges with hydrogens summed into heavy atoms:
              1
     1  C    0.757458
     2  C   -0.020506
     3  C    0.764035
     4  C   -0.018211
     5  H    0.000000
     6  H    0.000000
     7  H    0.000000
     8  H    0.000000
     9  H    0.000000
    10  H    0.000000
    11  O   -0.587458
    12  O   -0.587458
    13  O   -0.586614
    14  O   -0.586614
    15  O    0.001064
    16  Rh   0.864296
    17  Rh   0.864296
    18  O   -0.587458
    19  O   -0.586614
    20  C    0.764035
    21  O   -0.587458
    22  O   -0.586614
    23  O    0.001064
    24  C    0.757458
    25  C   -0.018211
    26  C   -0.020506
    27  H    0.000000
    28  H    0.000000
    29  H    0.000000
    30  H    0.000000
    31  H    0.000000
    32  H    0.000000
    33  H    0.000000
    34  H    0.000000
    35  H    0.000000
    36  H    0.000000
 Sum of APT charges=  -0.00002
 Electronic spatial extent (au):  <R**2>=           5767.4841
 Charge=              0.0000 electrons
 Dipole moment (field-independent basis, Debye):
    X=              0.0000    Y=              0.0000    Z=              0.0000  Tot=              0.0000
 Quadrupole moment (field-independent basis, Debye-Ang):
   XX=           -126.5970   YY=           -134.2239   ZZ=           -112.5803
   XY=              0.0706   XZ=              0.0000   YZ=              0.0000
 Traceless Quadrupole moment (field-independent basis, Debye-Ang):
   XX=             -2.1300   YY=             -9.7569   ZZ=             11.8868
   XY=              0.0706   XZ=              0.0000   YZ=              0.0000
 Octapole moment (field-independent basis, Debye-Ang**2):
  XXX=              0.0000  YYY=              0.0000  ZZZ=              0.0000  XYY=              0.0000
  XXY=              0.0000  XXZ=              0.0000  XZZ=              0.0000  YZZ=              0.0000
  YYZ=              0.0000  XYZ=              0.0000
 Hexadecapole moment (field-independent basis, Debye-Ang**3):
 XXXX=          -2398.2805 YYYY=          -2407.9997 ZZZZ=           -801.4195 XXXY=              3.4005
 XXXZ=              0.0000 YYYX=             -3.4297 YYYZ=              0.0000 ZZZX=              0.0000
 ZZZY=              0.0000 XXYY=           -883.6007 XXZZ=           -731.5916 YYZZ=           -846.1379
 XXYZ=              0.0000 YYXZ=              0.0000 ZZXY=              0.5753
 N-N= 2.357743399111D+03 E-N=-7.687369419065D+03  KE= 1.137545892005D+03
 Symmetry AG   KE= 3.806814862437D+02
 Symmetry BG   KE= 1.908016955689D+02
 Symmetry AU   KE= 2.420506558434D+02
 Symmetry BU   KE= 3.240120543489D+02
  Exact polarizability: 209.518   0.042 205.436   0.000   0.000 182.316
 Approx polarizability: 352.096   0.118 344.470   0.000   0.000 527.459
   4 Symmetry operations used in ECPInt.
 ECPInt:  NShTT=    9591 NPrTT=   68474 LenC2=    9592 LenP2D=   61192.
 LDataN:  DoStor=T MaxTD1= 7 Len=  274
 Calling FoFJK, ICntrl=    100527 FMM=F ISym2X=1 I1Cent= 0 IOpClX= 0 NMat=1 NMatS=1 NMatT=0.
 Defaulting to unpruned grid for atomic number  45.
 Defaulting to unpruned grid for atomic number  45.
 Defaulting to unpruned grid for atomic number  45.
 Defaulting to unpruned grid for atomic number  45.
 Defaulting to unpruned grid for atomic number  45.
 Defaulting to unpruned grid for atomic number  45.
 Full mass-weighted force constant matrix:
 Low frequencies --- -352.6155 -344.6774   -0.0010   -0.0003    0.0010    8.2920
 Low frequencies ---    8.3038   10.7031   31.4215
 ******    2 imaginary frequencies (negative Signs) ****** 
 Diagonal vibrational polarizability:
      221.4091909     206.4174927      35.5831500
 Harmonic frequencies (cm**-1), IR intensities (KM/Mole), Raman scattering
 activities (A**4/AMU), depolarization ratios for plane and unpolarized
 incident light, reduced masses (AMU), force constants (mDyne/A),
 and normal coordinates:
                           1         2         3         4         5
                          BG        BU        AU        BG        BG
       Frequencies ---  -352.6155 -344.6774   31.4215   32.8246   33.3968
    Reduced masses ---     1.1538    1.1503    1.0093    1.0121    1.0127
   Force constants ---     0.0845    0.0805    0.0006    0.0006    0.0007
    IR Intensities ---     0.0000  661.3749    0.0020    0.0000    0.0000
 Coord Atom Element:
   1     1     6          0.00000  -0.00019   0.00000   0.00000   0.00000
   2     1     6          0.00000  -0.00323   0.00000   0.00000   0.00000
   3     1     6         -0.00120   0.00000  -0.00142   0.00364  -0.00385
   1     2     6          0.00000   0.00028   0.00000   0.00000   0.00000
   2     2     6          0.00000  -0.00302   0.00000   0.00000   0.00000
   3     2     6          0.00006   0.00000   0.00490  -0.00367  -0.00579
   1     3     6          0.00000   0.00007   0.00000   0.00000   0.00000
   2     3     6          0.00000  -0.00209   0.00000   0.00000   0.00000
   3     3     6          0.00007   0.00000   0.00116  -0.00376  -0.00296
   1     4     6          0.00000  -0.00012   0.00000   0.00000   0.00000
   2     4     6          0.00000   0.00052   0.00000   0.00000   0.00000
   3     4     6         -0.00011   0.00000  -0.00467  -0.00564   0.00564
   1     5     1          0.00000   0.00020   0.00000   0.00000   0.00000
   2     5     1          0.00000  -0.00356   0.00000   0.00000   0.00000
   3     5     1          0.00195   0.00000   0.33486  -0.43287   0.00011
   1     6     1         -0.00063  -0.00002   0.26876  -0.34973   0.00505
   2     6     1         -0.00303  -0.00443   0.00336  -0.00496   0.00132
   3     6     1          0.00152   0.00071  -0.13892   0.18372  -0.00904
   1     7     1          0.00063  -0.00002  -0.26876   0.34973  -0.00505
   2     7     1          0.00303  -0.00443  -0.00336   0.00496  -0.00132
   3     7     1          0.00152  -0.00071  -0.13892   0.18372  -0.00904
   1     8     1          0.00000  -0.00359   0.00000   0.00000   0.00000
   2     8     1          0.00000   0.00147   0.00000   0.00000   0.00000
   3     8     1          0.00072   0.00000  -0.27910   0.00022   0.43437
   1     9     1          0.00037   0.00166  -0.00233   0.00127   0.00403
   2     9     1          0.00031   0.00242   0.22379  -0.00502  -0.34980
   3     9     1         -0.00011   0.00031   0.11505  -0.00885  -0.18164
   1    10     1         -0.00037   0.00166   0.00233  -0.00127  -0.00403
   2    10     1         -0.00031   0.00242  -0.22379   0.00502   0.34980
   3    10     1         -0.00011  -0.00031   0.11505  -0.00885  -0.18164
   1    11     8          0.00002  -0.00004  -0.00176  -0.00037  -0.00021
   2    11     8          0.00041  -0.00253   0.00009   0.00026  -0.00151
   3    11     8         -0.00565  -0.00035  -0.00137   0.00342  -0.00305
   1    12     8         -0.00002  -0.00004   0.00176   0.00037   0.00021
   2    12     8         -0.00041  -0.00253  -0.00009  -0.00026   0.00151
   3    12     8         -0.00565   0.00035  -0.00137   0.00342  -0.00305
   1    13     8         -0.00004   0.00005  -0.00015  -0.00148   0.00010
   2    13     8          0.00476  -0.00305  -0.00029   0.00028  -0.00037
   3    13     8          0.00008  -0.00001   0.00114  -0.00297  -0.00285
   1    14     8         -0.00004   0.00005   0.00015  -0.00148   0.00010
   2    14     8          0.00476  -0.00305   0.00029   0.00028  -0.00037
   3    14     8         -0.00008   0.00001   0.00114   0.00297   0.00285
   1    15     8          0.00039  -0.00039   0.00000  -0.00525  -0.00440
   2    15     8         -0.06900   0.06841   0.00000   0.00122  -0.00497
   3    15     8          0.00000   0.00000  -0.00002   0.00000   0.00000
   1    16    45         -0.00001   0.00000   0.00000  -0.00146   0.00025
   2    16    45          0.00002   0.00182   0.00000  -0.00007  -0.00147
   3    16    45          0.00000   0.00000   0.00000   0.00000   0.00000
   1    17    45          0.00001   0.00000   0.00000   0.00146  -0.00025
   2    17    45         -0.00002   0.00182   0.00000   0.00007   0.00147
   3    17    45          0.00000   0.00000   0.00000   0.00000   0.00000
   1    18     8          0.00002  -0.00004   0.00176  -0.00037  -0.00021
   2    18     8          0.00041  -0.00253  -0.00009   0.00026  -0.00151
   3    18     8          0.00565   0.00035  -0.00137  -0.00342   0.00305
   1    19     8          0.00004   0.00005   0.00015   0.00148  -0.00010
   2    19     8         -0.00476  -0.00305   0.00029  -0.00028   0.00037
   3    19     8          0.00008   0.00001   0.00114  -0.00297  -0.00285
   1    20     6          0.00000   0.00007   0.00000   0.00000   0.00000
   2    20     6          0.00000  -0.00209   0.00000   0.00000   0.00000
   3    20     6         -0.00007   0.00000   0.00116   0.00376   0.00296
   1    21     8         -0.00002  -0.00004  -0.00176   0.00037   0.00021
   2    21     8         -0.00041  -0.00253   0.00009  -0.00026   0.00151
   3    21     8          0.00565  -0.00035  -0.00137  -0.00342   0.00305
   1    22     8          0.00004   0.00005  -0.00015   0.00148  -0.00010
   2    22     8         -0.00476  -0.00305  -0.00029  -0.00028   0.00037
   3    22     8         -0.00008  -0.00001   0.00114   0.00297   0.00285
   1    23     8         -0.00039  -0.00039   0.00000   0.00525   0.00440
   2    23     8          0.06900   0.06841   0.00000  -0.00122   0.00497
   3    23     8          0.00000   0.00000  -0.00002   0.00000   0.00000
   1    24     6          0.00000  -0.00019   0.00000   0.00000   0.00000
   2    24     6          0.00000  -0.00323   0.00000   0.00000   0.00000
   3    24     6          0.00120   0.00000  -0.00142  -0.00364   0.00385
   1    25     6          0.00000  -0.00012   0.00000   0.00000   0.00000
   2    25     6          0.00000   0.00052   0.00000   0.00000   0.00000
   3    25     6          0.00011   0.00000  -0.00467   0.00564  -0.00564
   1    26     6          0.00000   0.00028   0.00000   0.00000   0.00000
   2    26     6          0.00000  -0.00302   0.00000   0.00000   0.00000
   3    26     6         -0.00006   0.00000   0.00490   0.00367   0.00579
   1    27     1          0.00000   0.00020   0.00000   0.00000   0.00000
   2    27     1          0.00000  -0.00356   0.00000   0.00000   0.00000
   3    27     1         -0.00195   0.00000   0.33486   0.43287  -0.00011
   1    28     1          0.00063  -0.00002   0.26876   0.34973  -0.00505
   2    28     1          0.00303  -0.00443   0.00336   0.00496  -0.00132
   3    28     1         -0.00152   0.00071  -0.13892  -0.18372   0.00904
   1    29     1         -0.00063  -0.00002  -0.26876  -0.34973   0.00505
   2    29     1         -0.00303  -0.00443  -0.00336  -0.00496   0.00132
   3    29     1         -0.00152  -0.00071  -0.13892  -0.18372   0.00904
   1    30     1          0.00000  -0.00359   0.00000   0.00000   0.00000
   2    30     1          0.00000   0.00147   0.00000   0.00000   0.00000
   3    30     1         -0.00072   0.00000  -0.27910  -0.00022  -0.43437
   1    31     1         -0.00037   0.00166  -0.00233  -0.00127  -0.00403
   2    31     1         -0.00031   0.00242   0.22379   0.00502   0.34980
   3    31     1          0.00011   0.00031   0.11505   0.00885   0.18164
   1    32     1          0.00037   0.00166   0.00233   0.00127   0.00403
   2    32     1          0.00031   0.00242  -0.22379  -0.00502  -0.34980
   3    32     1          0.00011  -0.00031   0.11505   0.00885   0.18164
   1    33     1          0.00292   0.00292   0.00008   0.00628   0.00677
   2    33     1         -0.49754  -0.49757  -0.00909  -0.00177   0.00608
   3    33     1          0.00004   0.00004   0.00001   0.00159   0.00363
   1    34     1          0.00292   0.00292  -0.00008   0.00628   0.00677
   2    34     1         -0.49754  -0.49757   0.00909  -0.00177   0.00608
   3    34     1         -0.00004  -0.00004   0.00001  -0.00159  -0.00363
   1    35     1         -0.00292   0.00292   0.00008  -0.00628  -0.00677
   2    35     1          0.49754  -0.49757  -0.00909   0.00177  -0.00608
   3    35     1         -0.00004   0.00004   0.00001  -0.00159  -0.00363
   1    36     1         -0.00292   0.00292  -0.00008  -0.00628  -0.00677
   2    36     1          0.49754  -0.49757   0.00909   0.00177  -0.00608
   3    36     1          0.00004  -0.00004   0.00001   0.00159   0.00363
                           6         7         8         9        10
                          AU        BU        AG        BG        AU
       Frequencies ---    34.5868   57.4204   59.6223   64.7530   65.0016
    Reduced masses ---     1.0215    3.3759    2.8887    3.3538    1.3104
   Force constants ---     0.0007    0.0066    0.0061    0.0083    0.0033
    IR Intensities ---     0.6157   13.3499    0.0000    0.0000    0.0029
 Coord Atom Element:
   1     1     6          0.00000  -0.05818   0.07800   0.00000   0.00000
   2     1     6          0.00000  -0.00060   0.00059   0.00000   0.00000
   3     1     6          0.00152   0.00000   0.00000  -0.00006  -0.00005
   1     2     6          0.00000  -0.14122   0.18311   0.00000   0.00000
   2     2     6          0.00000  -0.00364   0.00436   0.00000   0.00000
   3     2     6         -0.00370   0.00000   0.00000   0.00003   0.00140
   1     3     6          0.00000  -0.00321  -0.00060   0.00000   0.00000
   2     3     6          0.00000   0.00101   0.07562   0.00000   0.00000
   3     3     6          0.00160   0.00000   0.00000  -0.07150   0.00049
   1     4     6          0.00000  -0.00332  -0.00441   0.00000   0.00000
   2     4     6          0.00000   0.00326   0.17990   0.00000   0.00000
   3     4     6         -0.00540   0.00000   0.00000  -0.10852   0.00186
   1     5     1          0.00000  -0.16044   0.20695   0.00000   0.00000
   2     5     1          0.00000  -0.06481   0.08008   0.00000   0.00000
   3     5     1         -0.27778   0.00000   0.00000  -0.00291  -0.01507
   1     6     1         -0.22364  -0.16445   0.21142  -0.00163  -0.01190
   2     6     1         -0.00286   0.02447  -0.03037  -0.00002  -0.00154
   3     6     1          0.11603   0.00017   0.00002   0.00085   0.00822
   1     7     1          0.22364  -0.16445   0.21142   0.00163   0.01190
   2     7     1          0.00286   0.02447  -0.03037   0.00002   0.00154
   3     7     1          0.11603  -0.00017  -0.00002   0.00085   0.00822
   1     8     1          0.00000  -0.00464  -0.07964   0.00000   0.00000
   2     8     1          0.00000   0.00368   0.20355   0.00000   0.00000
   3     8     1         -0.33482   0.00000   0.00000  -0.09035  -0.02731
   1     9     1         -0.00287  -0.00210   0.03011   0.02237  -0.00141
   2     9     1          0.26907   0.00350   0.20812  -0.02098   0.02293
   3     9     1          0.13860  -0.00037   0.00000  -0.12956   0.01439
   1    10     1          0.00287  -0.00210   0.03011  -0.02237   0.00141
   2    10     1         -0.26907   0.00350   0.20812   0.02098  -0.02293
   3    10     1          0.13860   0.00037   0.00000  -0.12956   0.01439
   1    11     8          0.01009  -0.02746   0.03902  -0.00888  -0.03681
   2    11     8          0.00000  -0.00014   0.00000  -0.00010   0.00005
   3    11     8          0.00151  -0.00004   0.00004  -0.00009  -0.00031
   1    12     8         -0.01009  -0.02746   0.03902   0.00888   0.03681
   2    12     8          0.00000  -0.00014   0.00000   0.00010  -0.00005
   3    12     8          0.00151   0.00004  -0.00004  -0.00009  -0.00031
   1    13     8         -0.00011  -0.00508   0.00000  -0.02302  -0.00005
   2    13     8         -0.01011   0.00033   0.03669  -0.00020   0.06075
   3    13     8          0.00162   0.00144  -0.00004  -0.06250   0.00015
   1    14     8          0.00011  -0.00508   0.00000  -0.02302   0.00005
   2    14     8          0.01011   0.00033  -0.03669  -0.00020  -0.06075
   3    14     8          0.00162  -0.00144  -0.00004   0.06250   0.00015
   1    15     8          0.00000   0.24502   0.00000   0.23538   0.00000
   2    15     8          0.00000   0.00099   0.00000   0.00112   0.00000
   3    15     8          0.00122   0.00000   0.00000   0.00000  -0.00031
   1    16    45          0.00000  -0.00620   0.00000  -0.01458   0.00000
   2    16    45          0.00000  -0.00019   0.00000  -0.00013   0.00000
   3    16    45          0.00052   0.00000   0.00000   0.00000  -0.00035
   1    17    45          0.00000  -0.00620   0.00000   0.01458   0.00000
   2    17    45          0.00000  -0.00019   0.00000   0.00013   0.00000
   3    17    45          0.00052   0.00000   0.00000   0.00000  -0.00035
   1    18     8         -0.01009  -0.02746  -0.03902  -0.00888   0.03681
   2    18     8          0.00000  -0.00014   0.00000  -0.00010  -0.00005
   3    18     8          0.00151   0.00004   0.00004   0.00009  -0.00031
   1    19     8          0.00011  -0.00508   0.00000   0.02302   0.00005
   2    19     8          0.01011   0.00033   0.03669   0.00020  -0.06075
   3    19     8          0.00162  -0.00144   0.00004  -0.06250   0.00015
   1    20     6          0.00000  -0.00321   0.00060   0.00000   0.00000
   2    20     6          0.00000   0.00101  -0.07562   0.00000   0.00000
   3    20     6          0.00160   0.00000   0.00000   0.07150   0.00049
   1    21     8          0.01009  -0.02746  -0.03902   0.00888  -0.03681
   2    21     8          0.00000  -0.00014   0.00000   0.00010   0.00005
   3    21     8          0.00151  -0.00004  -0.00004   0.00009  -0.00031
   1    22     8         -0.00011  -0.00508   0.00000   0.02302  -0.00005
   2    22     8         -0.01011   0.00033  -0.03669   0.00020   0.06075
   3    22     8          0.00162   0.00144   0.00004   0.06250   0.00015
   1    23     8          0.00000   0.24502   0.00000  -0.23538   0.00000
   2    23     8          0.00000   0.00099   0.00000  -0.00112   0.00000
   3    23     8          0.00122   0.00000   0.00000   0.00000  -0.00031
   1    24     6          0.00000  -0.05818  -0.07800   0.00000   0.00000
   2    24     6          0.00000  -0.00060  -0.00059   0.00000   0.00000
   3    24     6          0.00152   0.00000   0.00000   0.00006  -0.00005
   1    25     6          0.00000  -0.00332   0.00441   0.00000   0.00000
   2    25     6          0.00000   0.00326  -0.17990   0.00000   0.00000
   3    25     6         -0.00540   0.00000   0.00000   0.10852   0.00186
   1    26     6          0.00000  -0.14122  -0.18311   0.00000   0.00000
   2    26     6          0.00000  -0.00364  -0.00436   0.00000   0.00000
   3    26     6         -0.00370   0.00000   0.00000  -0.00003   0.00140
   1    27     1          0.00000  -0.16044  -0.20695   0.00000   0.00000
   2    27     1          0.00000  -0.06481  -0.08008   0.00000   0.00000
   3    27     1         -0.27778   0.00000   0.00000   0.00291  -0.01507
   1    28     1         -0.22364  -0.16445  -0.21142   0.00163  -0.01190
   2    28     1         -0.00286   0.02447   0.03037   0.00002  -0.00154
   3    28     1          0.11603   0.00017  -0.00002  -0.00085   0.00822
   1    29     1          0.22364  -0.16445  -0.21142  -0.00163   0.01190
   2    29     1          0.00286   0.02447   0.03037  -0.00002   0.00154
   3    29     1          0.11603  -0.00017   0.00002  -0.00085   0.00822
   1    30     1          0.00000  -0.00464   0.07964   0.00000   0.00000
   2    30     1          0.00000   0.00368  -0.20355   0.00000   0.00000
   3    30     1         -0.33482   0.00000   0.00000   0.09035  -0.02731
   1    31     1         -0.00287  -0.00210  -0.03011  -0.02237  -0.00141
   2    31     1          0.26907   0.00350  -0.20812   0.02098   0.02293
   3    31     1          0.13860  -0.00037   0.00000   0.12956   0.01439
   1    32     1          0.00287  -0.00210  -0.03011   0.02237   0.00141
   2    32     1         -0.26907   0.00350  -0.20812  -0.02098  -0.02293
   3    32     1          0.13860   0.00037   0.00000   0.12956   0.01439
   1    33     1          0.00007   0.36360   0.00153  -0.37613  -0.00286
   2    33     1         -0.00548   0.00152  -0.26441  -0.00207   0.49347
   3    33     1          0.00129   0.18066  -0.00001  -0.21433  -0.00031
   1    34     1         -0.00007   0.36360  -0.00153  -0.37613   0.00286
   2    34     1          0.00548   0.00152   0.26441  -0.00209  -0.49347
   3    34     1          0.00129  -0.18066  -0.00001   0.21433  -0.00031
   1    35     1          0.00007   0.36360  -0.00153   0.37613  -0.00286
   2    35     1         -0.00548   0.00152   0.26441   0.00209   0.49347
   3    35     1          0.00129   0.18066   0.00001   0.21433  -0.00031
   1    36     1         -0.00007   0.36360   0.00153   0.37613   0.00286
   2    36     1          0.00548   0.00152  -0.26441   0.00207  -0.49347
   3    36     1          0.00129  -0.18066   0.00001  -0.21433  -0.00031
                          11        12        13        14        15
                          BU        BU        AU        AG        BU
       Frequencies ---    65.0419   68.2500   69.3121   73.3329   97.4199
    Reduced masses ---     3.5094    3.5497    3.5292    1.0876    5.7036
   Force constants ---     0.0087    0.0097    0.0100    0.0034    0.0319
    IR Intensities ---     1.2444   14.8026    0.0057    0.0000    9.0786
 Coord Atom Element:
   1     1     6          0.00225   0.07098   0.00000  -0.00749   0.00065
   2     1     6         -0.03197   0.00088   0.00000  -0.00012  -0.04100
   3     1     6          0.00000   0.00000  -0.00085   0.00000   0.00000
   1     2     6          0.00629   0.25705   0.00000  -0.03617   0.00107
   2     2     6         -0.03202   0.00763   0.00000  -0.00122  -0.04160
   3     2     6          0.00000   0.00000  -0.00563   0.00000   0.00000
   1     3     6         -0.00105  -0.04270   0.00000   0.00015  -0.00012
   2     3     6          0.09179  -0.00204   0.00000  -0.01036  -0.01004
   3     3     6          0.00000   0.00000  -0.00025   0.00000   0.00000
   1     4     6         -0.00844  -0.04287   0.00000   0.00155  -0.00210
   2     4     6          0.29157  -0.00545   0.00000  -0.04624   0.04332
   3     4     6          0.00000   0.00000  -0.00454   0.00000   0.00000
   1     5     1          0.00729   0.29987   0.00000  -0.04311   0.00128
   2     5     1         -0.02886   0.14366   0.00000  -0.02338  -0.04093
   3     5     1          0.00000   0.00000   0.05600   0.00000   0.00000
   1     6     1          0.00721   0.30827   0.04679  -0.04484   0.00132
   2     6     1         -0.03326  -0.05482   0.00453   0.00908  -0.04164
   3     6     1          0.00006  -0.00013  -0.03173   0.00014  -0.00008
   1     7     1          0.00721   0.30827  -0.04679  -0.04484   0.00132
   2     7     1         -0.03326  -0.05482  -0.00453   0.00908  -0.04164
   3     7     1         -0.00006   0.00013  -0.03173  -0.00014   0.00008
   1     8     1         -0.15497  -0.03992   0.00000   0.02919  -0.04146
   2     8     1          0.33760  -0.00637   0.00000  -0.05489   0.05573
   3     8     1          0.00000   0.00000   0.04782   0.00000   0.00000
   1     9     1          0.05890  -0.04358   0.00424  -0.01129   0.01589
   2     9     1          0.34706  -0.00642  -0.03889  -0.05704   0.05807
   3     9     1          0.00025  -0.00017  -0.02648  -0.00017   0.00001
   1    10     1          0.05890  -0.04358  -0.00424  -0.01129   0.01589
   2    10     1          0.34706  -0.00642   0.03889  -0.05704   0.05807
   3    10     1         -0.00025   0.00017  -0.02648   0.00017  -0.00001
   1    11     8          0.00095   0.00474   0.15968   0.00181   0.00051
   2    11     8         -0.03185  -0.00015  -0.00001   0.00003  -0.04214
   3    11     8         -0.00025   0.00011   0.00010  -0.00002   0.00213
   1    12     8          0.00095   0.00474  -0.15968   0.00181   0.00051
   2    12     8         -0.03185  -0.00015   0.00001   0.00003  -0.04214
   3    12     8          0.00025  -0.00011   0.00010   0.00002  -0.00213
   1    13     8          0.00009  -0.04379  -0.00005  -0.00003   0.00021
   2    13     8          0.01983  -0.00091  -0.12860   0.00128  -0.02827
   3    13     8         -0.00011   0.00076   0.00059   0.00003  -0.00005
   1    14     8          0.00009  -0.04379   0.00005   0.00003   0.00021
   2    14     8          0.01983  -0.00091   0.12860  -0.00128  -0.02827
   3    14     8          0.00011  -0.00076   0.00059   0.00003   0.00005
   1    15     8         -0.00042   0.11121   0.00000   0.00000  -0.00200
   2    15     8         -0.05822   0.00092   0.00000   0.00000   0.37079
   3    15     8          0.00000   0.00000   0.00080  -0.00004   0.00000
   1    16    45          0.00002  -0.04479   0.00000   0.00000   0.00024
   2    16    45         -0.03238  -0.00011   0.00000   0.00000  -0.03845
   3    16    45          0.00000   0.00000   0.00108   0.00000   0.00000
   1    17    45          0.00002  -0.04479   0.00000   0.00000   0.00024
   2    17    45         -0.03238  -0.00011   0.00000   0.00000  -0.03845
   3    17    45          0.00000   0.00000   0.00108   0.00000   0.00000
   1    18     8          0.00095   0.00474  -0.15968  -0.00181   0.00051
   2    18     8         -0.03185  -0.00015   0.00001  -0.00003  -0.04214
   3    18     8          0.00025  -0.00011   0.00010  -0.00002  -0.00213
   1    19     8          0.00009  -0.04379   0.00005  -0.00003   0.00021
   2    19     8          0.01983  -0.00091   0.12860   0.00128  -0.02827
   3    19     8          0.00012  -0.00076   0.00059  -0.00003   0.00005
   1    20     6         -0.00105  -0.04270   0.00000  -0.00015  -0.00012
   2    20     6          0.09179  -0.00204   0.00000   0.01036  -0.01004
   3    20     6          0.00000   0.00000  -0.00025   0.00000   0.00000
   1    21     8          0.00095   0.00474   0.15968  -0.00181   0.00051
   2    21     8         -0.03185  -0.00015  -0.00001  -0.00003  -0.04214
   3    21     8         -0.00025   0.00011   0.00010   0.00002   0.00213
   1    22     8          0.00009  -0.04379  -0.00005   0.00003   0.00021
   2    22     8          0.01983  -0.00091  -0.12860  -0.00128  -0.02827
   3    22     8         -0.00012   0.00076   0.00059  -0.00003  -0.00005
   1    23     8         -0.00042   0.11121   0.00000   0.00000  -0.00200
   2    23     8         -0.05822   0.00092   0.00000   0.00000   0.37079
   3    23     8          0.00000   0.00000   0.00080   0.00004   0.00000
   1    24     6          0.00225   0.07098   0.00000   0.00749   0.00065
   2    24     6         -0.03197   0.00088   0.00000   0.00012  -0.04100
   3    24     6          0.00000   0.00000  -0.00085   0.00000   0.00000
   1    25     6         -0.00844  -0.04287   0.00000  -0.00155  -0.00210
   2    25     6          0.29157  -0.00545   0.00000   0.04624   0.04332
   3    25     6          0.00000   0.00000  -0.00454   0.00000   0.00000
   1    26     6          0.00629   0.25705   0.00000   0.03617   0.00107
   2    26     6         -0.03202   0.00763   0.00000   0.00122  -0.04160
   3    26     6          0.00000   0.00000  -0.00563   0.00000   0.00000
   1    27     1          0.00729   0.29987   0.00000   0.04311   0.00128
   2    27     1         -0.02886   0.14366   0.00000   0.02338  -0.04093
   3    27     1          0.00000   0.00000   0.05600   0.00000   0.00000
   1    28     1          0.00721   0.30827   0.04679   0.04484   0.00132
   2    28     1         -0.03326  -0.05482   0.00453  -0.00908  -0.04164
   3    28     1          0.00006  -0.00013  -0.03173  -0.00014  -0.00008
   1    29     1          0.00721   0.30827  -0.04679   0.04484   0.00132
   2    29     1         -0.03326  -0.05482  -0.00453  -0.00908  -0.04164
   3    29     1         -0.00006   0.00013  -0.03173   0.00014   0.00008
   1    30     1         -0.15497  -0.03992   0.00000  -0.02919  -0.04146
   2    30     1          0.33760  -0.00637   0.00000   0.05489   0.05573
   3    30     1          0.00000   0.00000   0.04782   0.00000   0.00000
   1    31     1          0.05890  -0.04358   0.00424   0.01129   0.01589
   2    31     1          0.34706  -0.00642  -0.03889   0.05704   0.05807
   3    31     1          0.00025  -0.00017  -0.02648   0.00017   0.00001
   1    32     1          0.05890  -0.04358  -0.00424   0.01129   0.01589
   2    32     1          0.34706  -0.00642   0.03889   0.05704   0.05807
   3    32     1         -0.00025   0.00017  -0.02648  -0.00017  -0.00001
   1    33     1         -0.00056   0.18569  -0.00260   0.00284  -0.00215
   2    33     1         -0.06362   0.00184   0.44696  -0.48946   0.40820
   3    33     1         -0.00027   0.11348   0.00077   0.00005   0.00009
   1    34     1         -0.00056   0.18569   0.00260  -0.00284  -0.00215
   2    34     1         -0.06362   0.00184  -0.44696   0.48946   0.40820
   3    34     1          0.00027  -0.11348   0.00077   0.00005  -0.00009
   1    35     1         -0.00056   0.18570  -0.00260  -0.00284  -0.00215
   2    35     1         -0.06362   0.00184   0.44696   0.48946   0.40820
   3    35     1         -0.00027   0.11348   0.00077  -0.00005   0.00009
   1    36     1         -0.00056   0.18570   0.00260   0.00284  -0.00215
   2    36     1         -0.06362   0.00184  -0.44696  -0.48946   0.40820
   3    36     1          0.00027  -0.11348   0.00077  -0.00005  -0.00009
                          16        17        18        19        20
                          BG        AG        AU        BG        BG
       Frequencies ---   106.9370  122.0774  127.2581  157.4991  159.1923
    Reduced masses ---     5.4131    4.4770    4.7269   15.2073   16.3231
   Force constants ---     0.0365    0.0393    0.0451    0.2223    0.2437
    IR Intensities ---     0.0000    0.0000    0.0002    0.0000    0.0000
 Coord Atom Element:
   1     1     6          0.00000   0.06572   0.00000   0.00000   0.00000
   2     1     6          0.00000  -0.00145   0.00000   0.00000   0.00000
   3     1     6         -0.09068   0.00000   0.11298   0.00725  -0.17550
   1     2     6          0.00000  -0.15847   0.00000   0.00000   0.00000
   2     2     6          0.00000  -0.01024   0.00000   0.00000   0.00000
   3     2     6         -0.15961   0.00000   0.20205  -0.00526  -0.09769
   1     3     6          0.00000  -0.00142   0.00000   0.00000   0.00000
   2     3     6          0.00000  -0.06447   0.00000   0.00000   0.00000
   3     3     6         -0.00049   0.00000  -0.11805  -0.17514  -0.00687
   1     4     6          0.00000  -0.01006   0.00000   0.00000   0.00000
   2     4     6          0.00000   0.15240   0.00000   0.00000   0.00000
   3     4     6         -0.00074   0.00000  -0.21088  -0.10959   0.00751
   1     5     1          0.00000  -0.21361   0.00000   0.00000   0.00000
   2     5     1          0.00000  -0.18479   0.00000   0.00000   0.00000
   3     5     1         -0.16636   0.00000   0.20795   0.01599  -0.10248
   1     6     1          0.00891  -0.22507  -0.01545   0.00922  -0.01407
   2     6     1          0.04635   0.06975  -0.06403   0.01012  -0.04137
   3     6     1         -0.18461   0.00070   0.23828  -0.01324  -0.07237
   1     7     1         -0.00891  -0.22507   0.01545  -0.00922   0.01407
   2     7     1         -0.04635   0.06975   0.06403  -0.01012   0.04137
   3     7     1         -0.18461  -0.00070   0.23828  -0.01324  -0.07237
   1     8     1          0.00000  -0.17889   0.00000   0.00000   0.00000
   2     8     1          0.00000   0.20565   0.00000   0.00000   0.00000
   3     8     1          0.00047   0.00000  -0.21260  -0.11670  -0.01453
   1     9     1          0.00016   0.06730   0.06647  -0.03257  -0.01140
   2     9     1         -0.00037   0.21695  -0.01952   0.01313   0.00985
   3     9     1         -0.00098   0.00071  -0.25047  -0.08852   0.01636
   1    10     1         -0.00016   0.06730  -0.06647   0.03257   0.01140
   2    10     1          0.00037   0.21695   0.01952  -0.01313  -0.00985
   3    10     1         -0.00098  -0.00071  -0.25047  -0.08852   0.01636
   1    11     8          0.00147   0.13748  -0.00271   0.31092   0.00535
   2    11     8         -0.03132  -0.00013   0.03444   0.00027   0.09185
   3    11     8         -0.07530  -0.00026   0.09361   0.00896  -0.22889
   1    12     8         -0.00147   0.13748   0.00271  -0.31092  -0.00535
   2    12     8          0.03132  -0.00013  -0.03444  -0.00027  -0.09185
   3    12     8         -0.07530   0.00026   0.09361   0.00896  -0.22889
   1    13     8          0.00010  -0.00012  -0.03614   0.08428   0.00026
   2    13     8         -0.00593  -0.13437  -0.00289  -0.00505   0.31611
   3    13     8         -0.00050  -0.00026  -0.09822  -0.22347  -0.00902
   1    14     8          0.00010   0.00012   0.03614   0.08428   0.00026
   2    14     8         -0.00593   0.13437   0.00289  -0.00505   0.31611
   3    14     8          0.00050  -0.00026  -0.09822   0.22347   0.00902
   1    15     8         -0.00210   0.00000   0.00000  -0.06081  -0.00096
   2    15     8          0.32877   0.00000   0.00000  -0.00227  -0.09753
   3    15     8          0.00000   0.00003   0.00909   0.00000   0.00000
   1    16    45          0.00026   0.00000   0.00000   0.13882   0.00003
   2    16    45         -0.01071   0.00000   0.00000  -0.00007   0.14856
   3    16    45          0.00000  -0.00037   0.00172   0.00000   0.00000
   1    17    45         -0.00026   0.00000   0.00000  -0.13882  -0.00003
   2    17    45          0.01071   0.00000   0.00000   0.00007  -0.14856
   3    17    45          0.00000   0.00037   0.00172   0.00000   0.00000
   1    18     8          0.00147  -0.13748   0.00271   0.31092   0.00535
   2    18     8         -0.03132   0.00013  -0.03444   0.00027   0.09185
   3    18     8          0.07530  -0.00026   0.09361  -0.00896   0.22889
   1    19     8         -0.00010  -0.00012   0.03614  -0.08428  -0.00026
   2    19     8          0.00593  -0.13437   0.00289   0.00505  -0.31611
   3    19     8         -0.00050   0.00026  -0.09822  -0.22347  -0.00902
   1    20     6          0.00000   0.00142   0.00000   0.00000   0.00000
   2    20     6          0.00000   0.06447   0.00000   0.00000   0.00000
   3    20     6          0.00049   0.00000  -0.11805   0.17514   0.00687
   1    21     8         -0.00147  -0.13748  -0.00271  -0.31092  -0.00535
   2    21     8          0.03132   0.00013   0.03444  -0.00027  -0.09185
   3    21     8          0.07530   0.00026   0.09361  -0.00896   0.22889
   1    22     8         -0.00010   0.00012  -0.03614  -0.08428  -0.00026
   2    22     8          0.00593   0.13437  -0.00289   0.00505  -0.31611
   3    22     8          0.00050   0.00026  -0.09822   0.22347   0.00902
   1    23     8          0.00210   0.00000   0.00000   0.06081   0.00096
   2    23     8         -0.32877   0.00000   0.00000   0.00227   0.09753
   3    23     8          0.00000  -0.00003   0.00909   0.00000   0.00000
   1    24     6          0.00000  -0.06572   0.00000   0.00000   0.00000
   2    24     6          0.00000   0.00145   0.00000   0.00000   0.00000
   3    24     6          0.09068   0.00000   0.11298  -0.00725   0.17550
   1    25     6          0.00000   0.01006   0.00000   0.00000   0.00000
   2    25     6          0.00000  -0.15240   0.00000   0.00000   0.00000
   3    25     6          0.00074   0.00000  -0.21088   0.10959  -0.00751
   1    26     6          0.00000   0.15847   0.00000   0.00000   0.00000
   2    26     6          0.00000   0.01024   0.00000   0.00000   0.00000
   3    26     6          0.15961   0.00000   0.20205   0.00526   0.09769
   1    27     1          0.00000   0.21361   0.00000   0.00000   0.00000
   2    27     1          0.00000   0.18479   0.00000   0.00000   0.00000
   3    27     1          0.16636   0.00000   0.20795  -0.01599   0.10248
   1    28     1         -0.00891   0.22507  -0.01545  -0.00922   0.01407
   2    28     1         -0.04635  -0.06975  -0.06403  -0.01012   0.04137
   3    28     1          0.18461  -0.00070   0.23828   0.01324   0.07237
   1    29     1          0.00891   0.22507   0.01545   0.00922  -0.01407
   2    29     1          0.04635  -0.06975   0.06403   0.01012  -0.04137
   3    29     1          0.18461   0.00070   0.23828   0.01324   0.07237
   1    30     1          0.00000   0.17889   0.00000   0.00000   0.00000
   2    30     1          0.00000  -0.20565   0.00000   0.00000   0.00000
   3    30     1         -0.00047   0.00000  -0.21260   0.11670   0.01453
   1    31     1         -0.00016  -0.06730   0.06647   0.03257   0.01140
   2    31     1          0.00037  -0.21695  -0.01952  -0.01313  -0.00985
   3    31     1          0.00098  -0.00071  -0.25047   0.08852  -0.01636
   1    32     1          0.00016  -0.06730  -0.06647  -0.03257  -0.01140
   2    32     1         -0.00037  -0.21695   0.01952   0.01313   0.00985
   3    32     1          0.00098   0.00071  -0.25047   0.08852  -0.01636
   1    33     1          0.00232   0.00010   0.00109   0.15753  -0.00057
   2    33     1         -0.34957  -0.01938   0.00710  -0.00032   0.20032
   3    33     1          0.00015  -0.00006   0.01086   0.14875  -0.00139
   1    34     1          0.00232  -0.00010  -0.00109   0.15753  -0.00057
   2    34     1         -0.34957   0.01938  -0.00710  -0.00032   0.20032
   3    34     1         -0.00015  -0.00006   0.01086  -0.14875   0.00139
   1    35     1         -0.00232  -0.00010   0.00109  -0.15753   0.00057
   2    35     1          0.34957   0.01938   0.00710   0.00032  -0.20032
   3    35     1         -0.00015   0.00006   0.01086  -0.14875   0.00139
   1    36     1         -0.00232   0.00010  -0.00109  -0.15753   0.00057
   2    36     1          0.34957  -0.01938  -0.00710   0.00032  -0.20032
   3    36     1          0.00015   0.00006   0.01086   0.14875  -0.00139
                          21        22        23        24        25
                          AU        AU        AG        BG        BG
       Frequencies ---   166.8944  202.2580  211.8568  231.5663  233.1865
    Reduced masses ---     4.5077   12.0023    6.2953    5.1052    5.2497
   Force constants ---     0.0740    0.2893    0.1665    0.1613    0.1682
    IR Intensities ---     3.7715    0.0000    0.0000    0.0000    0.0000
 Coord Atom Element:
   1     1     6          0.00000   0.00000   0.14140   0.00000   0.00000
   2     1     6          0.00000   0.00000  -0.00383   0.00000   0.00000
   3     1     6          0.05948   0.00832   0.00000   0.00152  -0.11095
   1     2     6          0.00000   0.00000  -0.08758   0.00000   0.00000
   2     2     6          0.00000   0.00000  -0.01387   0.00000   0.00000
   3     2     6          0.19332  -0.00306   0.00000   0.00225   0.18931
   1     3     6          0.00000   0.00000   0.00399   0.00000   0.00000
   2     3     6          0.00000   0.00000   0.14463   0.00000   0.00000
   3     3     6          0.05409  -0.00873   0.00000  -0.10542  -0.00151
   1     4     6          0.00000   0.00000   0.01441   0.00000   0.00000
   2     4     6          0.00000   0.00000  -0.08932   0.00000   0.00000
   3     4     6          0.17773   0.00450   0.00000   0.19281  -0.00445
   1     5     1          0.00000   0.00000  -0.15019   0.00000   0.00000
   2     5     1          0.00000   0.00000  -0.21021   0.00000   0.00000
   3     5     1          0.20965   0.01114   0.00000  -0.00291   0.24186
   1     6     1         -0.01858   0.00387  -0.16332  -0.00138  -0.03062
   2     6     1         -0.09902   0.01115   0.07581  -0.00306  -0.22472
   3     6     1          0.24658  -0.00876   0.00109   0.00382   0.30350
   1     7     1          0.01858  -0.00387  -0.16332   0.00138   0.03062
   2     7     1          0.09902  -0.01115   0.07581   0.00306   0.22472
   3     7     1          0.24658  -0.00876  -0.00109   0.00382   0.30350
   1     8     1          0.00000   0.00000   0.21494   0.00000   0.00000
   2     8     1          0.00000   0.00000  -0.15317   0.00000   0.00000
   3     8     1          0.18994  -0.01086   0.00000   0.24126   0.00057
   1     9     1         -0.09096  -0.01260  -0.07719  -0.22287   0.00492
   2     9     1          0.01918   0.00464  -0.16683   0.03306  -0.00171
   3     9     1          0.22794   0.01119  -0.00114   0.30781  -0.00697
   1    10     1          0.09096   0.01260  -0.07719   0.22287  -0.00492
   2    10     1         -0.01918  -0.00464  -0.16683  -0.03306   0.00171
   3    10     1          0.22794   0.01119   0.00114   0.30781  -0.00697
   1    11     8          0.00476   0.29502   0.18136  -0.13654  -0.01068
   2    11     8          0.04552   0.00176  -0.00202  -0.00522   0.08916
   3    11     8          0.03442   0.00902  -0.00058   0.00391  -0.15610
   1    12     8         -0.00476  -0.29502   0.18136   0.13654   0.01068
   2    12     8         -0.04552  -0.00176  -0.00202   0.00522  -0.08916
   3    12     8          0.03442   0.00902   0.00058   0.00391  -0.15610
   1    13     8          0.04259  -0.00147   0.00210   0.09030   0.00522
   2    13     8         -0.00476   0.31002   0.18547   0.00877  -0.14175
   3    13     8          0.03132  -0.00982   0.00061  -0.15259  -0.00382
   1    14     8         -0.04259   0.00147  -0.00210   0.09030   0.00522
   2    14     8          0.00476  -0.31002  -0.18547   0.00877  -0.14175
   3    14     8          0.03132  -0.00982   0.00061   0.15259   0.00382
   1    15     8          0.00000   0.00000   0.00000  -0.00309   0.00068
   2    15     8          0.00000   0.00000   0.00000   0.00181   0.01982
   3    15     8         -0.14344   0.00122   0.00017   0.00000   0.00000
   1    16    45          0.00000   0.00000   0.00000   0.00937   0.00724
   2    16    45          0.00000   0.00000   0.00000  -0.00623   0.00670
   3    16    45         -0.06494  -0.00014   0.00005   0.00000   0.00000
   1    17    45          0.00000   0.00000   0.00000  -0.00937  -0.00724
   2    17    45          0.00000   0.00000   0.00000   0.00623  -0.00670
   3    17    45         -0.06494  -0.00014  -0.00005   0.00000   0.00000
   1    18     8         -0.00476  -0.29502  -0.18136  -0.13654  -0.01068
   2    18     8         -0.04552  -0.00176   0.00202  -0.00522   0.08916
   3    18     8          0.03442   0.00902  -0.00058  -0.00391   0.15610
   1    19     8         -0.04259   0.00147   0.00210  -0.09030  -0.00522
   2    19     8          0.00476  -0.31002   0.18547  -0.00877   0.14175
   3    19     8          0.03132  -0.00982  -0.00061  -0.15259  -0.00382
   1    20     6          0.00000   0.00000  -0.00399   0.00000   0.00000
   2    20     6          0.00000   0.00000  -0.14463   0.00000   0.00000
   3    20     6          0.05409  -0.00873   0.00000   0.10542   0.00151
   1    21     8          0.00476   0.29502  -0.18136   0.13654   0.01068
   2    21     8          0.04552   0.00176   0.00202   0.00522  -0.08916
   3    21     8          0.03442   0.00902   0.00058  -0.00391   0.15610
   1    22     8          0.04259  -0.00147  -0.00210  -0.09030  -0.00522
   2    22     8         -0.00476   0.31002  -0.18547  -0.00877   0.14175
   3    22     8          0.03132  -0.00982  -0.00061   0.15259   0.00382
   1    23     8          0.00000   0.00000   0.00000   0.00309  -0.00068
   2    23     8          0.00000   0.00000   0.00000  -0.00181  -0.01982
   3    23     8         -0.14344   0.00122  -0.00017   0.00000   0.00000
   1    24     6          0.00000   0.00000  -0.14140   0.00000   0.00000
   2    24     6          0.00000   0.00000   0.00383   0.00000   0.00000
   3    24     6          0.05948   0.00832   0.00000  -0.00152   0.11095
   1    25     6          0.00000   0.00000  -0.01441   0.00000   0.00000
   2    25     6          0.00000   0.00000   0.08932   0.00000   0.00000
   3    25     6          0.17773   0.00450   0.00000  -0.19281   0.00445
   1    26     6          0.00000   0.00000   0.08758   0.00000   0.00000
   2    26     6          0.00000   0.00000   0.01387   0.00000   0.00000
   3    26     6          0.19332  -0.00306   0.00000  -0.00225  -0.18931
   1    27     1          0.00000   0.00000   0.15019   0.00000   0.00000
   2    27     1          0.00000   0.00000   0.21021   0.00000   0.00000
   3    27     1          0.20965   0.01114   0.00000   0.00291  -0.24186
   1    28     1         -0.01858   0.00387   0.16332   0.00138   0.03062
   2    28     1         -0.09902   0.01115  -0.07581   0.00306   0.22472
   3    28     1          0.24658  -0.00876  -0.00109  -0.00382  -0.30350
   1    29     1          0.01858  -0.00387   0.16332  -0.00138  -0.03062
   2    29     1          0.09902  -0.01115  -0.07581  -0.00306  -0.22472
   3    29     1          0.24658  -0.00876   0.00109  -0.00382  -0.30350
   1    30     1          0.00000   0.00000  -0.21494   0.00000   0.00000
   2    30     1          0.00000   0.00000   0.15317   0.00000   0.00000
   3    30     1          0.18994  -0.01086   0.00000  -0.24126  -0.00057
   1    31     1         -0.09096  -0.01260   0.07719   0.22287  -0.00492
   2    31     1          0.01918   0.00464   0.16683  -0.03306   0.00171
   3    31     1          0.22794   0.01119   0.00114  -0.30781   0.00697
   1    32     1          0.09096   0.01260   0.07719  -0.22287   0.00492
   2    32     1         -0.01918  -0.00464   0.16683   0.03306  -0.00171
   3    32     1          0.22794   0.01119  -0.00114  -0.30781   0.00697
   1    33     1         -0.00292   0.00163  -0.00081  -0.01465   0.00604
   2    33     1          0.00018  -0.25677   0.14066  -0.00252  -0.00947
   3    33     1         -0.14908   0.00145  -0.00018  -0.02669   0.01036
   1    34     1          0.00292  -0.00163   0.00081  -0.01465   0.00604
   2    34     1         -0.00018   0.25677  -0.14066  -0.00252  -0.00947
   3    34     1         -0.14908   0.00145  -0.00018   0.02669  -0.01036
   1    35     1         -0.00292   0.00163   0.00081   0.01465  -0.00604
   2    35     1          0.00018  -0.25677  -0.14066   0.00252   0.00947
   3    35     1         -0.14908   0.00145   0.00018   0.02669  -0.01036
   1    36     1          0.00292  -0.00163  -0.00081   0.01465  -0.00604
   2    36     1         -0.00018   0.25677   0.14066   0.00252   0.00947
   3    36     1         -0.14908   0.00145   0.00018  -0.02669   0.01036
                          26        27        28        29        30
                          BU        BU        AG        AU        BG
       Frequencies ---   238.4491  239.7838  243.0871  251.2174  273.9560
    Reduced masses ---     6.8690    6.9112    7.3703    4.9735    6.5171
   Force constants ---     0.2301    0.2341    0.2566    0.1849    0.2882
    IR Intensities ---     0.0684    0.6038    0.0000    0.5264    0.0000
 Coord Atom Element:
   1     1     6          0.20288   0.00322  -0.00018   0.00000   0.00000
   2     1     6         -0.00041  -0.10385   0.03629   0.00000   0.00000
   3     1     6          0.00000   0.00000   0.00000  -0.04299   0.00521
   1     2     6         -0.10696   0.00216  -0.00177   0.00000   0.00000
   2     2     6         -0.01446  -0.11729   0.03895   0.00000   0.00000
   3     2     6          0.00000   0.00000   0.00000   0.08979  -0.01241
   1     3     6         -0.10017   0.00072   0.03516   0.00000   0.00000
   2     3     6         -0.00317   0.20342   0.00003   0.00000   0.00000
   3     3     6          0.00000   0.00000   0.00000  -0.04311   0.04221
   1     4     6         -0.11293   0.01500   0.03727   0.00000   0.00000
   2     4     6         -0.00207  -0.10561   0.00175   0.00000   0.00000
   3     4     6          0.00000   0.00000   0.00000   0.10296  -0.16908
   1     5     1         -0.19660   0.00120  -0.00164   0.00000   0.00000
   2     5     1         -0.29535  -0.12083   0.03936   0.00000   0.00000
   3     5     1          0.00000   0.00000   0.00000   0.12019  -0.02074
   1     6     1         -0.21669   0.00075  -0.00125  -0.01104   0.00001
   2     6     1          0.11379  -0.11685   0.03964  -0.10737   0.00887
   3     6     1          0.00237   0.00011  -0.00038   0.14251  -0.01681
   1     7     1         -0.21669   0.00075  -0.00125   0.01104  -0.00001
   2     7     1          0.11379  -0.11685   0.03964   0.10737  -0.00887
   3     7     1         -0.00237  -0.00011   0.00038   0.14251  -0.01681
   1     8     1         -0.11635   0.29541   0.03752   0.00000   0.00000
   2     8     1         -0.00114  -0.19500   0.00167   0.00000   0.00000
   3     8     1          0.00000   0.00000   0.00000   0.13494  -0.22351
   1     9     1         -0.11231  -0.11300   0.03814  -0.11857   0.17922
   2     9     1         -0.00080  -0.21537   0.00129   0.01349  -0.01745
   3     9     1         -0.00001  -0.00240  -0.00046   0.16203  -0.25701
   1    10     1         -0.11231  -0.11300   0.03814   0.11857  -0.17922
   2    10     1         -0.00080  -0.21537   0.00129  -0.01349   0.01745
   3    10     1          0.00001   0.00240   0.00046   0.16203  -0.25701
   1    11     8          0.24540   0.00157   0.00096   0.00154  -0.17712
   2    11     8          0.00203  -0.08946   0.01673   0.03549  -0.00767
   3    11     8         -0.00103  -0.00476   0.01249  -0.06789   0.00831
   1    12     8          0.24540   0.00157   0.00096  -0.00154   0.17712
   2    12     8          0.00203  -0.08946   0.01673  -0.03549   0.00767
   3    12     8          0.00103   0.00476  -0.01249  -0.06789   0.00831
   1    13     8         -0.08657  -0.00178   0.01480   0.03804   0.00665
   2    13     8         -0.00154   0.24491  -0.00113  -0.00284   0.01090
   3    13     8         -0.00452   0.00104   0.01274  -0.07107   0.03131
   1    14     8         -0.08657  -0.00178  -0.01480  -0.03804   0.00665
   2    14     8         -0.00154   0.24491   0.00113   0.00284   0.01090
   3    14     8          0.00452  -0.00104   0.01274  -0.07107  -0.03131
   1    15     8         -0.00542  -0.00072   0.00000   0.00000   0.02935
   2    15     8         -0.00041   0.00403   0.00000   0.00000  -0.00118
   3    15     8          0.00000   0.00000   0.39225   0.29218   0.00000
   1    16    45         -0.02575  -0.00302   0.00000   0.00000   0.11834
   2    16    45          0.00295  -0.02467   0.00000   0.00000   0.00206
   3    16    45          0.00000   0.00000   0.08809  -0.02914   0.00000
   1    17    45         -0.02575  -0.00302   0.00000   0.00000  -0.11834
   2    17    45          0.00295  -0.02467   0.00000   0.00000  -0.00206
   3    17    45          0.00000   0.00000  -0.08809  -0.02914   0.00000
   1    18     8          0.24540   0.00157  -0.00096  -0.00154  -0.17712
   2    18     8          0.00203  -0.08946  -0.01673  -0.03549  -0.00767
   3    18     8          0.00103   0.00476   0.01249  -0.06789  -0.00831
   1    19     8         -0.08657  -0.00178   0.01480  -0.03804  -0.00665
   2    19     8         -0.00154   0.24491  -0.00113   0.00284  -0.01090
   3    19     8          0.00452  -0.00104  -0.01274  -0.07107   0.03131
   1    20     6         -0.10017   0.00072  -0.03516   0.00000   0.00000
   2    20     6         -0.00317   0.20342  -0.00003   0.00000   0.00000
   3    20     6          0.00000   0.00000   0.00000  -0.04311  -0.04221
   1    21     8          0.24540   0.00157  -0.00096   0.00154   0.17712
   2    21     8          0.00203  -0.08946  -0.01673   0.03549   0.00767
   3    21     8         -0.00103  -0.00476  -0.01249  -0.06789  -0.00831
   1    22     8         -0.08657  -0.00178  -0.01480   0.03804  -0.00665
   2    22     8         -0.00154   0.24491   0.00113  -0.00284  -0.01090
   3    22     8         -0.00452   0.00104  -0.01274  -0.07107  -0.03131
   1    23     8         -0.00542  -0.00072   0.00000   0.00000  -0.02935
   2    23     8         -0.00041   0.00403   0.00000   0.00000   0.00118
   3    23     8          0.00000   0.00000  -0.39225   0.29218   0.00000
   1    24     6          0.20288   0.00322   0.00018   0.00000   0.00000
   2    24     6         -0.00041  -0.10385  -0.03629   0.00000   0.00000
   3    24     6          0.00000   0.00000   0.00000  -0.04299  -0.00521
   1    25     6         -0.11293   0.01500  -0.03727   0.00000   0.00000
   2    25     6         -0.00207  -0.10561  -0.00175   0.00000   0.00000
   3    25     6          0.00000   0.00000   0.00000   0.10296   0.16908
   1    26     6         -0.10696   0.00216   0.00177   0.00000   0.00000
   2    26     6         -0.01446  -0.11729  -0.03895   0.00000   0.00000
   3    26     6          0.00000   0.00000   0.00000   0.08979   0.01241
   1    27     1         -0.19660   0.00120   0.00164   0.00000   0.00000
   2    27     1         -0.29535  -0.12083  -0.03936   0.00000   0.00000
   3    27     1          0.00000   0.00000   0.00000   0.12019   0.02074
   1    28     1         -0.21669   0.00075   0.00125  -0.01104  -0.00001
   2    28     1          0.11379  -0.11685  -0.03964  -0.10737  -0.00887
   3    28     1          0.00237   0.00011   0.00038   0.14251   0.01681
   1    29     1         -0.21669   0.00075   0.00125   0.01104   0.00001
   2    29     1          0.11379  -0.11685  -0.03964   0.10737   0.00887
   3    29     1         -0.00237  -0.00011  -0.00038   0.14251   0.01681
   1    30     1         -0.11635   0.29541  -0.03752   0.00000   0.00000
   2    30     1         -0.00114  -0.19500  -0.00167   0.00000   0.00000
   3    30     1          0.00000   0.00000   0.00000   0.13494   0.22351
   1    31     1         -0.11231  -0.11300  -0.03814  -0.11857  -0.17922
   2    31     1         -0.00080  -0.21537  -0.00129   0.01349   0.01745
   3    31     1         -0.00001  -0.00240   0.00046   0.16203   0.25701
   1    32     1         -0.11231  -0.11300  -0.03814   0.11857   0.17922
   2    32     1         -0.00080  -0.21537  -0.00129  -0.01349  -0.01745
   3    32     1          0.00001   0.00240  -0.00046   0.16203   0.25701
   1    33     1          0.01993   0.00144  -0.00434   0.00728   0.12466
   2    33     1         -0.00024  -0.01556  -0.00038   0.00094   0.00218
   3    33     1          0.03834   0.00312  -0.40138   0.30740   0.23468
   1    34     1          0.01993   0.00144   0.00434  -0.00728   0.12466
   2    34     1         -0.00024  -0.01556   0.00038  -0.00094   0.00218
   3    34     1         -0.03834  -0.00312  -0.40138   0.30740  -0.23468
   1    35     1          0.01993   0.00144   0.00434   0.00728  -0.12466
   2    35     1         -0.00024  -0.01556   0.00038   0.00094  -0.00218
   3    35     1          0.03834   0.00312   0.40138   0.30740  -0.23468
   1    36     1          0.01993   0.00144  -0.00434  -0.00728  -0.12466
   2    36     1         -0.00024  -0.01556  -0.00038  -0.00094  -0.00218
   3    36     1         -0.03834  -0.00312   0.40138   0.30740   0.23468
                          31        32        33        34        35
                          AU        BG        AG        AG        AU
       Frequencies ---   280.2117  282.9217  306.4789  312.3863  331.6646
    Reduced masses ---     4.2849    9.2906    6.7612    6.7444    7.2639
   Force constants ---     0.1982    0.4382    0.3742    0.3878    0.4708
    IR Intensities ---     0.0437    0.0000    0.0000    0.0000   33.5242
 Coord Atom Element:
   1     1     6          0.00000   0.00000  -0.00196  -0.00139   0.00000
   2     1     6          0.00000   0.00000  -0.17827   0.16802   0.00000
   3     1     6         -0.09865  -0.06591   0.00000   0.00000  -0.12204
   1     2     6          0.00000   0.00000   0.00924  -0.00765   0.00000
   2     2     6          0.00000   0.00000  -0.21426   0.20182   0.00000
   3     2     6          0.12287   0.19055   0.00000   0.00000   0.08944
   1     3     6          0.00000   0.00000   0.17301   0.17230   0.00000
   2     3     6          0.00000   0.00000  -0.00202   0.00124   0.00000
   3     3     6          0.09782   0.00446   0.00000   0.00000  -0.11776
   1     4     6          0.00000   0.00000   0.20775   0.20716   0.00000
   2     4     6          0.00000   0.00000   0.00910   0.00798   0.00000
   3     4     6         -0.12441  -0.01225   0.00000   0.00000   0.08495
   1     5     1          0.00000   0.00000   0.01122  -0.00817   0.00000
   2     5     1          0.00000   0.00000  -0.20778   0.19961   0.00000
   3     5     1          0.17180   0.25898   0.00000   0.00000   0.14374
   1     6     1         -0.02130  -0.01926   0.00927  -0.00535  -0.01827
   2     6     1         -0.18156  -0.21785  -0.21749   0.20213  -0.18295
   3     6     1          0.21340   0.29619   0.00048  -0.00054   0.17894
   1     7     1          0.02130   0.01926   0.00927  -0.00535   0.01827
   2     7     1          0.18156   0.21785  -0.21749   0.20213   0.18295
   3     7     1          0.21340   0.29619  -0.00048   0.00054   0.17894
   1     8     1          0.00000   0.00000   0.20111   0.20441   0.00000
   2     8     1          0.00000   0.00000   0.01113   0.00868   0.00000
   3     8     1         -0.17139  -0.02142   0.00000   0.00000   0.13518
   1     9     1          0.18172   0.00696   0.21096   0.20759  -0.17440
   2     9     1         -0.02266   0.00001   0.00942   0.00599   0.01824
   3     9     1         -0.21600  -0.01594  -0.00036  -0.00042   0.17096
   1    10     1         -0.18172  -0.00696   0.21096   0.20759   0.17440
   2    10     1          0.02266  -0.00001   0.00942   0.00599  -0.01824
   3    10     1         -0.21600  -0.01594   0.00036   0.00042   0.17096
   1    11     8          0.00577   0.01069  -0.00784   0.00441   0.00163
   2    11     8          0.04556  -0.01195  -0.14424   0.12938   0.02088
   3    11     8         -0.12698  -0.04602  -0.01029   0.01365  -0.13373
   1    12     8         -0.00577  -0.01069  -0.00784   0.00441  -0.00163
   2    12     8         -0.04556   0.01195  -0.14424   0.12938  -0.02088
   3    12     8         -0.12698  -0.04602   0.01029  -0.01365  -0.13373
   1    13     8         -0.04570  -0.00823   0.13947   0.13351   0.02089
   2    13     8          0.00597   0.21364  -0.00782  -0.00476  -0.00151
   3    13     8          0.12637   0.00780   0.01036   0.01351  -0.12908
   1    14     8          0.04570  -0.00823  -0.13947  -0.13351  -0.02089
   2    14     8         -0.00597   0.21364   0.00782   0.00476   0.00151
   3    14     8          0.12637  -0.00780   0.01036   0.01351  -0.12908
   1    15     8          0.00000   0.00004   0.00000   0.00000   0.00000
   2    15     8          0.00000   0.04193   0.00000   0.00000   0.00000
   3    15     8          0.00949   0.00000   0.00045  -0.10987  -0.16152
   1    16    45          0.00000   0.00227   0.00000   0.00000   0.00000
   2    16    45          0.00000  -0.14769   0.00000   0.00000   0.00000
   3    16    45         -0.00112   0.00000   0.00238   0.02827   0.10815
   1    17    45          0.00000  -0.00227   0.00000   0.00000   0.00000
   2    17    45          0.00000   0.14769   0.00000   0.00000   0.00000
   3    17    45         -0.00112   0.00000  -0.00238  -0.02827   0.10815
   1    18     8         -0.00577   0.01069   0.00784  -0.00441  -0.00163
   2    18     8         -0.04556  -0.01195   0.14424  -0.12938  -0.02088
   3    18     8         -0.12698   0.04602  -0.01029   0.01365  -0.13373
   1    19     8          0.04570   0.00823   0.13947   0.13351  -0.02089
   2    19     8         -0.00597  -0.21364  -0.00782  -0.00476   0.00151
   3    19     8          0.12637   0.00780  -0.01036  -0.01351  -0.12908
   1    20     6          0.00000   0.00000  -0.17301  -0.17230   0.00000
   2    20     6          0.00000   0.00000   0.00202  -0.00124   0.00000
   3    20     6          0.09782  -0.00446   0.00000   0.00000  -0.11776
   1    21     8          0.00577  -0.01069   0.00784  -0.00441   0.00163
   2    21     8          0.04556   0.01195   0.14424  -0.12938   0.02088
   3    21     8         -0.12698   0.04602   0.01029  -0.01365  -0.13373
   1    22     8         -0.04570   0.00823  -0.13947  -0.13351   0.02089
   2    22     8          0.00597  -0.21364   0.00782   0.00476  -0.00151
   3    22     8          0.12637  -0.00780  -0.01036  -0.01351  -0.12908
   1    23     8          0.00000  -0.00004   0.00000   0.00000   0.00000
   2    23     8          0.00000  -0.04193   0.00000   0.00000   0.00000
   3    23     8          0.00949   0.00000  -0.00045   0.10987  -0.16152
   1    24     6          0.00000   0.00000   0.00196   0.00139   0.00000
   2    24     6          0.00000   0.00000   0.17827  -0.16802   0.00000
   3    24     6         -0.09865   0.06591   0.00000   0.00000  -0.12204
   1    25     6          0.00000   0.00000  -0.20775  -0.20716   0.00000
   2    25     6          0.00000   0.00000  -0.00910  -0.00798   0.00000
   3    25     6         -0.12441   0.01225   0.00000   0.00000   0.08495
   1    26     6          0.00000   0.00000  -0.00924   0.00765   0.00000
   2    26     6          0.00000   0.00000   0.21426  -0.20182   0.00000
   3    26     6          0.12287  -0.19055   0.00000   0.00000   0.08944
   1    27     1          0.00000   0.00000  -0.01122   0.00817   0.00000
   2    27     1          0.00000   0.00000   0.20778  -0.19961   0.00000
   3    27     1          0.17180  -0.25898   0.00000   0.00000   0.14374
   1    28     1         -0.02130   0.01926  -0.00927   0.00535  -0.01827
   2    28     1         -0.18156   0.21785   0.21749  -0.20213  -0.18295
   3    28     1          0.21340  -0.29619  -0.00048   0.00054   0.17894
   1    29     1          0.02130  -0.01926  -0.00927   0.00535   0.01827
   2    29     1          0.18156  -0.21785   0.21749  -0.20213   0.18295
   3    29     1          0.21340  -0.29619   0.00048  -0.00054   0.17894
   1    30     1          0.00000   0.00000  -0.20111  -0.20441   0.00000
   2    30     1          0.00000   0.00000  -0.01113  -0.00868   0.00000
   3    30     1         -0.17139   0.02142   0.00000   0.00000   0.13518
   1    31     1          0.18172  -0.00696  -0.21096  -0.20759  -0.17440
   2    31     1         -0.02266  -0.00001  -0.00942  -0.00599   0.01824
   3    31     1         -0.21600   0.01594   0.00036   0.00042   0.17096
   1    32     1         -0.18172   0.00696  -0.21096  -0.20759   0.17440
   2    32     1          0.02266   0.00001  -0.00942  -0.00599  -0.01824
   3    32     1         -0.21600   0.01594  -0.00036  -0.00042   0.17096
   1    33     1         -0.00086   0.00283   0.00022   0.00191  -0.00320
   2    33     1         -0.00568  -0.00195  -0.00311  -0.00006  -0.00001
   3    33     1          0.00817   0.00473  -0.00033   0.11330  -0.16857
   1    34     1          0.00086   0.00283  -0.00022  -0.00191   0.00320
   2    34     1          0.00568  -0.00195   0.00311   0.00006   0.00001
   3    34     1          0.00817  -0.00473  -0.00033   0.11330  -0.16857
   1    35     1         -0.00086  -0.00283  -0.00022  -0.00191  -0.00320
   2    35     1         -0.00568   0.00195   0.00311   0.00006  -0.00001
   3    35     1          0.00817  -0.00473   0.00033  -0.11330  -0.16857
   1    36     1          0.00086  -0.00283   0.00022   0.00191   0.00320
   2    36     1          0.00568   0.00195  -0.00311  -0.00006   0.00001
   3    36     1          0.00817   0.00473   0.00033  -0.11330  -0.16857
                          36        37        38        39        40
                          AG        BU        BU        BU        BG
       Frequencies ---   354.0337  362.0255  370.1969  456.5075  460.9979
    Reduced masses ---    20.8221    5.8798    9.3356    1.3138    1.3003
   Force constants ---     1.5377    0.4540    0.7538    0.1613    0.1628
    IR Intensities ---     0.0000    9.0234   52.4047   95.7164    0.0000
 Coord Atom Element:
   1     1     6          0.00040  -0.06379   0.00015   0.01569   0.00000
   2     1     6         -0.04544  -0.00434  -0.20931   0.00043   0.00000
   3     1     6          0.00000   0.00000   0.00000   0.00000  -0.00011
   1     2     6          0.00177   0.02203   0.01109  -0.00284   0.00000
   2     2     6         -0.07238  -0.00100  -0.28393  -0.00048   0.00000
   3     2     6          0.00000   0.00000   0.00000   0.00000  -0.00001
   1     3     6         -0.05555  -0.16450   0.00546   0.01872   0.00000
   2     3     6         -0.00035   0.00037  -0.09105   0.00106   0.00000
   3     3     6          0.00000   0.00000   0.00000   0.00000   0.02132
   1     4     6         -0.08467  -0.21997   0.00053   0.02993   0.00000
   2     4     6         -0.00232  -0.00862   0.03005   0.00133   0.00000
   3     4     6          0.00000   0.00000   0.00000   0.00000  -0.01234
   1     5     1          0.00256   0.05358   0.01295  -0.01067   0.00000
   2     5     1         -0.07038   0.09634  -0.27840  -0.02422   0.00000
   3     5     1          0.00000   0.00000   0.00000   0.00000  -0.00020
   1     6     1          0.00094   0.06089   0.00889  -0.01222   0.00021
   2     6     1         -0.07245  -0.04540  -0.28681   0.01026  -0.00093
   3     6     1         -0.00006  -0.00109   0.00041   0.00017   0.00026
   1     7     1          0.00094   0.06089   0.00889  -0.01222  -0.00021
   2     7     1         -0.07245  -0.04540  -0.28681   0.01026   0.00093
   3     7     1          0.00006   0.00109  -0.00041  -0.00017   0.00026
   1     8     1         -0.08246  -0.21488  -0.13698   0.03084   0.00000
   2     8     1         -0.00316  -0.01034   0.07466   0.00097   0.00000
   3     8     1          0.00000   0.00000   0.00000   0.00000  -0.02630
   1     9     1         -0.08496  -0.22336   0.06316   0.02838   0.03861
   2     9     1         -0.00146  -0.00763   0.08482   0.00006  -0.00255
   3     9     1          0.00003   0.00054   0.00142   0.00034  -0.03084
   1    10     1         -0.08496  -0.22336   0.06316   0.02838  -0.03861
   2    10     1         -0.00146  -0.00763   0.08482   0.00006   0.00255
   3    10     1         -0.00003  -0.00054  -0.00142  -0.00034  -0.03084
   1    11     8         -0.00059  -0.04460  -0.00866   0.00427  -0.00715
   2    11     8         -0.08882  -0.00421  -0.14833   0.00057  -0.00051
   3    11     8          0.03388   0.00025  -0.02238  -0.00015   0.00014
   1    12     8         -0.00059  -0.04460  -0.00866   0.00427   0.00715
   2    12     8         -0.08882  -0.00421  -0.14833   0.00057   0.00051
   3    12     8         -0.03388  -0.00025   0.02238   0.00015   0.00014
   1    13     8         -0.09506  -0.11999   0.00545   0.00718   0.01721
   2    13     8          0.00111   0.00676  -0.06042  -0.00134   0.00051
   3    13     8          0.03239  -0.01501  -0.00044   0.00687   0.00639
   1    14     8          0.09506  -0.11999   0.00545   0.00718   0.01721
   2    14     8         -0.00111   0.00676  -0.06042  -0.00134   0.00051
   3    14     8          0.03239   0.01501   0.00044  -0.00687  -0.00639
   1    15     8          0.00000   0.05671  -0.00022   0.07940  -0.08393
   2    15     8          0.00000   0.00018  -0.01437   0.00047  -0.00049
   3    15     8         -0.31936   0.00000   0.00000   0.00000   0.00000
   1    16    45          0.00000   0.09943  -0.00118  -0.01941   0.01481
   2    16    45          0.00000   0.00097   0.13666  -0.00006   0.00009
   3    16    45          0.27332   0.00000   0.00000   0.00000   0.00000
   1    17    45          0.00000   0.09943  -0.00118  -0.01941  -0.01481
   2    17    45          0.00000   0.00097   0.13666  -0.00006  -0.00009
   3    17    45         -0.27332   0.00000   0.00000   0.00000   0.00000
   1    18     8          0.00059  -0.04460  -0.00866   0.00427  -0.00715
   2    18     8          0.08882  -0.00421  -0.14833   0.00057  -0.00051
   3    18     8          0.03388  -0.00025   0.02238   0.00015  -0.00014
   1    19     8         -0.09506  -0.11999   0.00545   0.00718  -0.01721
   2    19     8          0.00111   0.00676  -0.06042  -0.00134  -0.00051
   3    19     8         -0.03239   0.01501   0.00044  -0.00687   0.00639
   1    20     6          0.05555  -0.16450   0.00546   0.01872   0.00000
   2    20     6          0.00035   0.00037  -0.09105   0.00106   0.00000
   3    20     6          0.00000   0.00000   0.00000   0.00000  -0.02132
   1    21     8          0.00059  -0.04460  -0.00866   0.00427   0.00715
   2    21     8          0.08882  -0.00421  -0.14833   0.00057   0.00051
   3    21     8         -0.03388   0.00025  -0.02238  -0.00015  -0.00014
   1    22     8          0.09506  -0.11999   0.00545   0.00718  -0.01721
   2    22     8         -0.00111   0.00676  -0.06042  -0.00134  -0.00051
   3    22     8         -0.03239  -0.01501  -0.00044   0.00687  -0.00639
   1    23     8          0.00000   0.05671  -0.00022   0.07940   0.08393
   2    23     8          0.00000   0.00018  -0.01437   0.00047   0.00049
   3    23     8          0.31936   0.00000   0.00000   0.00000   0.00000
   1    24     6         -0.00040  -0.06379   0.00015   0.01569   0.00000
   2    24     6          0.04544  -0.00434  -0.20931   0.00043   0.00000
   3    24     6          0.00000   0.00000   0.00000   0.00000   0.00011
   1    25     6          0.08467  -0.21997   0.00053   0.02993   0.00000
   2    25     6          0.00232  -0.00862   0.03005   0.00133   0.00000
   3    25     6          0.00000   0.00000   0.00000   0.00000   0.01234
   1    26     6         -0.00177   0.02203   0.01109  -0.00284   0.00000
   2    26     6          0.07238  -0.00100  -0.28393  -0.00048   0.00000
   3    26     6          0.00000   0.00000   0.00000   0.00000   0.00001
   1    27     1         -0.00256   0.05358   0.01295  -0.01067   0.00000
   2    27     1          0.07038   0.09634  -0.27840  -0.02422   0.00000
   3    27     1          0.00000   0.00000   0.00000   0.00000   0.00020
   1    28     1         -0.00094   0.06089   0.00889  -0.01222  -0.00021
   2    28     1          0.07245  -0.04540  -0.28681   0.01026   0.00093
   3    28     1          0.00006  -0.00109   0.00041   0.00017  -0.00026
   1    29     1         -0.00094   0.06089   0.00889  -0.01222   0.00021
   2    29     1          0.07245  -0.04540  -0.28681   0.01026  -0.00093
   3    29     1         -0.00006   0.00109  -0.00041  -0.00017  -0.00026
   1    30     1          0.08246  -0.21488  -0.13698   0.03084   0.00000
   2    30     1          0.00316  -0.01034   0.07466   0.00097   0.00000
   3    30     1          0.00000   0.00000   0.00000   0.00000   0.02630
   1    31     1          0.08496  -0.22336   0.06316   0.02838  -0.03861
   2    31     1          0.00146  -0.00763   0.08482   0.00006   0.00255
   3    31     1         -0.00003   0.00054   0.00142   0.00034   0.03084
   1    32     1          0.08496  -0.22336   0.06316   0.02838   0.03861
   2    32     1          0.00146  -0.00763   0.08482   0.00006  -0.00255
   3    32     1          0.00003  -0.00054  -0.00142  -0.00034   0.03084
   1    33     1          0.01001  -0.13360   0.00054  -0.21339  -0.20953
   2    33     1          0.00029  -0.00069   0.05364  -0.00129  -0.00117
   3    33     1          0.33954  -0.28973   0.00178  -0.44538  -0.44607
   1    34     1         -0.01001  -0.13360   0.00054  -0.21339  -0.20953
   2    34     1         -0.00029  -0.00069   0.05364  -0.00129  -0.00117
   3    34     1          0.33954   0.28973  -0.00178   0.44538   0.44607
   1    35     1         -0.01001  -0.13360   0.00054  -0.21339   0.20953
   2    35     1         -0.00029  -0.00069   0.05364  -0.00129   0.00117
   3    35     1         -0.33954  -0.28973   0.00178  -0.44538   0.44607
   1    36     1          0.01001  -0.13360   0.00054  -0.21339   0.20953
   2    36     1          0.00029  -0.00069   0.05364  -0.00129   0.00117
   3    36     1         -0.33954   0.28973  -0.00178   0.44538  -0.44607
                          41        42        43        44        45
                          BG        AU        BG        AG        AU
       Frequencies ---   553.7052  555.0637  556.1650  561.5194  562.0280
    Reduced masses ---     4.9720    5.1948    4.9035    3.3577    5.3463
   Force constants ---     0.8981    0.9430    0.8936    0.6238    0.9950
    IR Intensities ---     0.0000    0.0065    0.0000    0.0000    3.1294
 Coord Atom Element:
   1     1     6          0.00000   0.00000   0.00000  -0.18986   0.00000
   2     1     6          0.00000   0.00000   0.00000  -0.00407   0.00000
   3     1     6          0.10993   0.08206  -0.00133   0.00000  -0.08491
   1     2     6          0.00000   0.00000   0.00000  -0.00764   0.00000
   2     2     6          0.00000   0.00000   0.00000   0.00872   0.00000
   3     2     6         -0.06695  -0.04343   0.00129   0.00000   0.04440
   1     3     6          0.00000   0.00000   0.00000  -0.00452   0.00000
   2     3     6          0.00000   0.00000   0.00000   0.20841   0.00000
   3     3     6          0.00137  -0.08805   0.10615   0.00000  -0.07945
   1     4     6          0.00000   0.00000   0.00000   0.00966   0.00000
   2     4     6          0.00000   0.00000   0.00000   0.00866   0.00000
   3     4     6         -0.00129   0.04657  -0.06417   0.00000   0.04160
   1     5     1          0.00000   0.00000   0.00000   0.09555   0.00000
   2     5     1          0.00000   0.00000   0.00000   0.32385   0.00000
   3     5     1         -0.21125  -0.14175   0.00231   0.00000   0.15056
   1     6     1          0.02049   0.01284  -0.00022   0.12595  -0.01352
   2     6     1          0.33552   0.22372  -0.00296  -0.13459  -0.23937
   3     6     1         -0.22646  -0.14935   0.00266  -0.00657   0.15765
   1     7     1         -0.02049  -0.01284   0.00022   0.12595   0.01352
   2     7     1         -0.33552  -0.22372   0.00296  -0.13459   0.23937
   3     7     1         -0.22646  -0.14935   0.00266   0.00657   0.15765
   1     8     1          0.00000   0.00000   0.00000   0.35480   0.00000
   2     8     1          0.00000   0.00000   0.00000  -0.10423   0.00000
   3     8     1         -0.00232   0.15141  -0.20452   0.00000   0.14047
   1     9     1          0.00321  -0.24011   0.32735  -0.14724  -0.22435
   2     9     1         -0.00018   0.01404  -0.02034  -0.13797   0.01290
   3     9     1         -0.00276   0.16065  -0.22035  -0.00729   0.14811
   1    10     1         -0.00321   0.24011  -0.32735  -0.14724   0.22435
   2    10     1          0.00018  -0.01404   0.02034  -0.13797  -0.01290
   3    10     1         -0.00276   0.16065  -0.22035   0.00729   0.14811
   1    11     8         -0.00349  -0.00202   0.00541   0.06571   0.00158
   2    11     8          0.23274   0.17021  -0.00259  -0.00819  -0.18490
   3    11     8         -0.00484  -0.02131  -0.00010   0.00387   0.02426
   1    12     8          0.00349   0.00202  -0.00541   0.06571  -0.00158
   2    12     8         -0.23274  -0.17021   0.00259  -0.00819   0.18490
   3    12     8         -0.00484  -0.02131  -0.00010  -0.00387   0.02426
   1    13     8          0.00269  -0.18197   0.22854  -0.00902  -0.17275
   2    13     8          0.00458  -0.00217   0.00342  -0.07363  -0.00146
   3    13     8          0.00007   0.02232  -0.00619   0.00429   0.02245
   1    14     8          0.00269   0.18197   0.22854   0.00902   0.17275
   2    14     8          0.00458   0.00217   0.00342   0.07363   0.00146
   3    14     8         -0.00007   0.02232   0.00619   0.00429   0.02245
   1    15     8         -0.00012   0.00000   0.02180   0.00000   0.00000
   2    15     8          0.00277   0.00000   0.00017   0.00000   0.00000
   3    15     8          0.00000  -0.00078   0.00000   0.00034   0.01026
   1    16    45          0.00036   0.00000  -0.04469   0.00000   0.00000
   2    16    45         -0.04135   0.00000  -0.00038   0.00000   0.00000
   3    16    45          0.00000  -0.00017   0.00000  -0.00116  -0.01602
   1    17    45         -0.00036   0.00000   0.04469   0.00000   0.00000
   2    17    45          0.04135   0.00000   0.00038   0.00000   0.00000
   3    17    45          0.00000  -0.00017   0.00000   0.00116  -0.01602
   1    18     8         -0.00349   0.00202   0.00541  -0.06571  -0.00158
   2    18     8          0.23274  -0.17021  -0.00259   0.00819   0.18490
   3    18     8          0.00484  -0.02131   0.00010   0.00387   0.02426
   1    19     8         -0.00269   0.18197  -0.22854  -0.00902   0.17275
   2    19     8         -0.00458   0.00217  -0.00342  -0.07363   0.00146
   3    19     8          0.00007   0.02232  -0.00619  -0.00429   0.02245
   1    20     6          0.00000   0.00000   0.00000   0.00452   0.00000
   2    20     6          0.00000   0.00000   0.00000  -0.20841   0.00000
   3    20     6         -0.00137  -0.08805  -0.10615   0.00000  -0.07945
   1    21     8          0.00349  -0.00202  -0.00541  -0.06571   0.00158
   2    21     8         -0.23274   0.17021   0.00259   0.00819  -0.18490
   3    21     8          0.00484  -0.02131   0.00010  -0.00387   0.02426
   1    22     8         -0.00269  -0.18197  -0.22854   0.00902  -0.17275
   2    22     8         -0.00458  -0.00217  -0.00342   0.07363  -0.00146
   3    22     8         -0.00007   0.02232   0.00619  -0.00429   0.02245
   1    23     8          0.00012   0.00000  -0.02180   0.00000   0.00000
   2    23     8         -0.00277   0.00000  -0.00017   0.00000   0.00000
   3    23     8          0.00000  -0.00078   0.00000  -0.00034   0.01026
   1    24     6          0.00000   0.00000   0.00000   0.18986   0.00000
   2    24     6          0.00000   0.00000   0.00000   0.00407   0.00000
   3    24     6         -0.10993   0.08206   0.00133   0.00000  -0.08491
   1    25     6          0.00000   0.00000   0.00000  -0.00966   0.00000
   2    25     6          0.00000   0.00000   0.00000  -0.00866   0.00000
   3    25     6          0.00129   0.04657   0.06417   0.00000   0.04160
   1    26     6          0.00000   0.00000   0.00000   0.00764   0.00000
   2    26     6          0.00000   0.00000   0.00000  -0.00872   0.00000
   3    26     6          0.06695  -0.04343  -0.00129   0.00000   0.04440
   1    27     1          0.00000   0.00000   0.00000  -0.09555   0.00000
   2    27     1          0.00000   0.00000   0.00000  -0.32385   0.00000
   3    27     1          0.21125  -0.14175  -0.00231   0.00000   0.15056
   1    28     1         -0.02049   0.01284   0.00022  -0.12595  -0.01352
   2    28     1         -0.33552   0.22372   0.00296   0.13459  -0.23937
   3    28     1          0.22646  -0.14935  -0.00266   0.00657   0.15765
   1    29     1          0.02049  -0.01284  -0.00022  -0.12595   0.01352
   2    29     1          0.33552  -0.22372  -0.00296   0.13459   0.23937
   3    29     1          0.22646  -0.14935  -0.00266  -0.00657   0.15765
   1    30     1          0.00000   0.00000   0.00000  -0.35480   0.00000
   2    30     1          0.00000   0.00000   0.00000   0.10423   0.00000
   3    30     1          0.00232   0.15141   0.20452   0.00000   0.14047
   1    31     1         -0.00321  -0.24011  -0.32735   0.14724  -0.22435
   2    31     1          0.00018   0.01404   0.02034   0.13797   0.01290
   3    31     1          0.00276   0.16065   0.22035   0.00729   0.14811
   1    32     1          0.00321   0.24011   0.32735   0.14724   0.22435
   2    32     1         -0.00018  -0.01404  -0.02034   0.13797  -0.01290
   3    32     1          0.00276   0.16065   0.22035  -0.00729   0.14811
   1    33     1         -0.00040   0.00039   0.04387  -0.00004   0.00046
   2    33     1         -0.00331   0.00069   0.00083   0.00031   0.00002
   3    33     1         -0.00082  -0.00053   0.09885  -0.00039   0.01037
   1    34     1         -0.00040  -0.00039   0.04387   0.00004  -0.00046
   2    34     1         -0.00331  -0.00069   0.00083  -0.00031  -0.00002
   3    34     1          0.00082  -0.00053  -0.09885  -0.00039   0.01037
   1    35     1          0.00040   0.00039  -0.04387   0.00004   0.00046
   2    35     1          0.00331   0.00069  -0.00083  -0.00031   0.00002
   3    35     1          0.00082  -0.00053  -0.09885   0.00039   0.01037
   1    36     1          0.00040  -0.00039  -0.04387  -0.00004  -0.00046
   2    36     1          0.00331  -0.00069  -0.00083   0.00031  -0.00002
   3    36     1         -0.00082  -0.00053   0.09885   0.00039   0.01037
                          46        47        48        49        50
                          AG        BU        BU        BU        BU
       Frequencies ---   573.4267  577.1584  578.3514  660.6280  660.8442
    Reduced masses ---     3.5400    3.6693    3.6503    9.1145    9.0135
   Force constants ---     0.6858    0.7202    0.7194    2.3437    2.3192
    IR Intensities ---     0.0000    5.0865    5.2573   76.6798   80.2474
 Coord Atom Element:
   1     1     6          0.20685  -0.01123   0.27807  -0.05163  -0.00245
   2     1     6          0.00397  -0.00250   0.00310  -0.09014  -0.00564
   3     1     6          0.00000   0.00000   0.00000   0.00000   0.00000
   1     2     6          0.01274  -0.00045   0.01923   0.01309   0.00011
   2     2     6         -0.01078  -0.00785  -0.01781  -0.25681  -0.01675
   3     2     6          0.00000   0.00000   0.00000   0.00000   0.00000
   1     3     6         -0.00362  -0.00347  -0.00295   0.00566  -0.08914
   2     3     6          0.18719   0.27910   0.01115  -0.00174   0.05055
   3     3     6          0.00000   0.00000   0.00000   0.00000   0.00000
   1     4     6          0.00988   0.01738  -0.00876   0.01693  -0.25491
   2     4     6          0.01178   0.01904   0.00041   0.00027  -0.01332
   3     4     6          0.00000   0.00000   0.00000   0.00000   0.00000
   1     5     1         -0.10088   0.00618  -0.13305   0.03102   0.00037
   2     5     1         -0.35764   0.01259  -0.48253  -0.20309  -0.01572
   3     5     1          0.00000   0.00000   0.00000   0.00000   0.00000
   1     6     1         -0.13472   0.00721  -0.17872   0.02272  -0.00003
   2     6     1          0.14661  -0.01620   0.19328  -0.29039  -0.01762
   3     6     1          0.00754  -0.00039   0.01009   0.00464   0.00009
   1     7     1         -0.13472   0.00721  -0.17872   0.02272  -0.00003
   2     7     1          0.14661  -0.01620   0.19328  -0.29039  -0.01762
   3     7     1         -0.00754   0.00039  -0.01009  -0.00464  -0.00009
   1     8     1          0.32299   0.48225   0.01150   0.01705  -0.20382
   2     8     1         -0.09067  -0.13312  -0.00615   0.00016  -0.03040
   3     8     1          0.00000   0.00000   0.00000   0.00000   0.00000
   1     9     1         -0.13216  -0.19376  -0.01700   0.01730  -0.28794
   2     9     1         -0.12158  -0.17929  -0.00717  -0.00039  -0.02193
   3     9     1         -0.00687  -0.01015  -0.00041  -0.00014   0.00490
   1    10     1         -0.13216  -0.19376  -0.01700   0.01730  -0.28794
   2    10     1         -0.12158  -0.17929  -0.00717  -0.00039  -0.02193
   3    10     1          0.00687   0.01015   0.00041   0.00014  -0.00490
   1    11     8         -0.08479   0.00440  -0.12089   0.01333   0.00163
   2    11     8          0.00999  -0.00328   0.01583   0.23531   0.01465
   3    11     8         -0.00522  -0.00018  -0.01014  -0.22060  -0.01392
   1    12     8         -0.08479   0.00440  -0.12089   0.01333   0.00163
   2    12     8          0.00999  -0.00328   0.01583   0.23531   0.01465
   3    12     8          0.00522   0.00018   0.01014   0.22060   0.01392
   1    13     8         -0.00909  -0.01554  -0.00283  -0.01479   0.23422
   2    13     8         -0.07796  -0.12152  -0.00442   0.00092  -0.01287
   3    13     8          0.00481   0.00978  -0.00082   0.01400  -0.21842
   1    14     8          0.00909  -0.01554  -0.00283  -0.01479   0.23422
   2    14     8          0.07796  -0.12152  -0.00442   0.00092  -0.01287
   3    14     8          0.00481  -0.00978   0.00082  -0.01400   0.21842
   1    15     8          0.00000  -0.00146  -0.00356  -0.00062   0.01289
   2    15     8          0.00000  -0.00059   0.00041   0.00442   0.00029
   3    15     8         -0.00010   0.00000   0.00000   0.00000   0.00000
   1    16    45          0.00000   0.00224   0.01049   0.00115  -0.02685
   2    16    45          0.00000   0.01027  -0.00209  -0.02580  -0.00111
   3    16    45          0.00009   0.00000   0.00000   0.00000   0.00000
   1    17    45          0.00000   0.00224   0.01049   0.00115  -0.02685
   2    17    45          0.00000   0.01027  -0.00209  -0.02580  -0.00111
   3    17    45         -0.00009   0.00000   0.00000   0.00000   0.00000
   1    18     8          0.08479   0.00440  -0.12089   0.01333   0.00163
   2    18     8         -0.00999  -0.00328   0.01583   0.23531   0.01465
   3    18     8         -0.00522   0.00018   0.01014   0.22060   0.01392
   1    19     8         -0.00909  -0.01554  -0.00283  -0.01479   0.23422
   2    19     8         -0.07796  -0.12152  -0.00442   0.00092  -0.01287
   3    19     8         -0.00481  -0.00978   0.00082  -0.01400   0.21842
   1    20     6          0.00362  -0.00347  -0.00295   0.00566  -0.08914
   2    20     6         -0.18719   0.27910   0.01115  -0.00174   0.05055
   3    20     6          0.00000   0.00000   0.00000   0.00000   0.00000
   1    21     8          0.08479   0.00440  -0.12089   0.01333   0.00163
   2    21     8         -0.00999  -0.00328   0.01583   0.23531   0.01465
   3    21     8          0.00522  -0.00018  -0.01014  -0.22060  -0.01392
   1    22     8          0.00909  -0.01554  -0.00283  -0.01479   0.23422
   2    22     8          0.07796  -0.12152  -0.00442   0.00092  -0.01287
   3    22     8         -0.00481   0.00978  -0.00082   0.01400  -0.21842
   1    23     8          0.00000  -0.00146  -0.00356  -0.00062   0.01289
   2    23     8          0.00000  -0.00059   0.00041   0.00442   0.00029
   3    23     8          0.00010   0.00000   0.00000   0.00000   0.00000
   1    24     6         -0.20685  -0.01123   0.27807  -0.05163  -0.00245
   2    24     6         -0.00397  -0.00250   0.00310  -0.09014  -0.00564
   3    24     6          0.00000   0.00000   0.00000   0.00000   0.00000
   1    25     6         -0.00988   0.01738  -0.00876   0.01693  -0.25491
   2    25     6         -0.01178   0.01904   0.00041   0.00027  -0.01332
   3    25     6          0.00000   0.00000   0.00000   0.00000   0.00000
   1    26     6         -0.01274  -0.00045   0.01923   0.01309   0.00011
   2    26     6          0.01078  -0.00785  -0.01781  -0.25681  -0.01675
   3    26     6          0.00000   0.00000   0.00000   0.00000   0.00000
   1    27     1          0.10088   0.00618  -0.13305   0.03102   0.00037
   2    27     1          0.35764   0.01259  -0.48253  -0.20309  -0.01572
   3    27     1          0.00000   0.00000   0.00000   0.00000   0.00000
   1    28     1          0.13472   0.00721  -0.17872   0.02272  -0.00003
   2    28     1         -0.14661  -0.01620   0.19328  -0.29039  -0.01762
   3    28     1         -0.00754  -0.00039   0.01009   0.00464   0.00009
   1    29     1          0.13472   0.00721  -0.17872   0.02272  -0.00003
   2    29     1         -0.14661  -0.01620   0.19328  -0.29039  -0.01762
   3    29     1          0.00754   0.00039  -0.01009  -0.00464  -0.00009
   1    30     1         -0.32299   0.48225   0.01150   0.01705  -0.20382
   2    30     1          0.09067  -0.13312  -0.00615   0.00016  -0.03040
   3    30     1          0.00000   0.00000   0.00000   0.00000   0.00000
   1    31     1          0.13216  -0.19376  -0.01700   0.01730  -0.28794
   2    31     1          0.12158  -0.17929  -0.00717  -0.00039  -0.02193
   3    31     1          0.00687  -0.01015  -0.00041  -0.00014   0.00490
   1    32     1          0.13216  -0.19376  -0.01700   0.01730  -0.28794
   2    32     1          0.12158  -0.17929  -0.00717  -0.00039  -0.02193
   3    32     1         -0.00687   0.01015   0.00041   0.00014  -0.00490
   1    33     1          0.00001   0.00338   0.01219   0.00051  -0.02252
   2    33     1         -0.00251   0.00350  -0.00089  -0.00037   0.00019
   3    33     1          0.00010   0.00735   0.02409   0.00161  -0.05324
   1    34     1         -0.00001   0.00338   0.01219   0.00051  -0.02252
   2    34     1          0.00251   0.00350  -0.00089  -0.00037   0.00019
   3    34     1          0.00010  -0.00735  -0.02409  -0.00161   0.05324
   1    35     1         -0.00001   0.00338   0.01219   0.00051  -0.02252
   2    35     1          0.00251   0.00350  -0.00089  -0.00037   0.00019
   3    35     1         -0.00010   0.00735   0.02409   0.00161  -0.05324
   1    36     1          0.00001   0.00338   0.01219   0.00051  -0.02252
   2    36     1         -0.00251   0.00350  -0.00089  -0.00037   0.00019
   3    36     1         -0.00010  -0.00735  -0.02409  -0.00161   0.05324
                          51        52        53        54        55
                          AG        AG        BU        BU        AG
       Frequencies ---   680.6444  689.0578  891.1270  891.7198  900.7817
    Reduced masses ---     8.4870    8.5070    7.2644    7.2897    7.6024
   Force constants ---     2.3166    2.3798    3.3988    3.4152    3.6345
    IR Intensities ---     0.0000    0.0000    2.9866    2.1268    0.0000
 Coord Atom Element:
   1     1     6         -0.02884   0.02942   0.02249  -0.00129  -0.01661
   2     1     6         -0.04899   0.04730  -0.14194   0.00042   0.11708
   3     1     6          0.00000   0.00000   0.00000   0.00000   0.00000
   1     2     6          0.00931  -0.01070  -0.01833   0.00031   0.01379
   2     2     6         -0.18026   0.19934   0.26492  -0.00080  -0.19916
   3     2     6          0.00000   0.00000   0.00000   0.00000   0.00000
   1     3     6          0.05344   0.04307   0.00041   0.14156  -0.09436
   2     3     6         -0.03127  -0.02666   0.00127   0.02261  -0.01363
   3     3     6          0.00000   0.00000   0.00000   0.00000   0.00000
   1     4     6          0.19770   0.18245  -0.00079  -0.26466   0.16120
   2     4     6          0.01044   0.00999  -0.00028  -0.01852   0.01132
   3     4     6          0.00000   0.00000   0.00000   0.00000   0.00000
   1     5     1          0.01808  -0.01911  -0.00966  -0.00064   0.00647
   2     5     1         -0.15551   0.17579   0.31015  -0.00380  -0.23698
   3     5     1          0.00000   0.00000   0.00000   0.00000   0.00000
   1     6     1          0.01152  -0.01081   0.00786  -0.00127  -0.00593
   2     6     1         -0.19911   0.21794   0.29208   0.00044  -0.22176
   3     6     1          0.00315  -0.00353  -0.01300   0.00027   0.01029
   1     7     1          0.01152  -0.01081   0.00786  -0.00127  -0.00593
   2     7     1         -0.19911   0.21794   0.29208   0.00044  -0.22176
   3     7     1         -0.00315   0.00353   0.01300  -0.00027  -0.01029
   1     8     1          0.17160   0.16168  -0.00378  -0.31020   0.19223
   2     8     1          0.01969   0.01740   0.00068  -0.00975   0.00525
   3     8     1          0.00000   0.00000   0.00000   0.00000   0.00000
   1     9     1          0.21819   0.19935   0.00044  -0.29142   0.17925
   2     9     1          0.01233   0.00968   0.00128   0.00775  -0.00474
   3     9     1         -0.00359  -0.00335   0.00026   0.01284  -0.00825
   1    10     1          0.21819   0.19935   0.00044  -0.29142   0.17925
   2    10     1          0.01233   0.00968   0.00128   0.00775  -0.00474
   3    10     1          0.00359   0.00335  -0.00026  -0.01284   0.00825
   1    11     8          0.00660  -0.00576  -0.00137   0.00133   0.00106
   2    11     8          0.15939  -0.17378  -0.10433   0.00022   0.07420
   3    11     8         -0.13488   0.14491  -0.24443   0.00072   0.20310
   1    12     8          0.00660  -0.00576  -0.00137   0.00133   0.00106
   2    12     8          0.15939  -0.17378  -0.10433   0.00022   0.07420
   3    12     8          0.13488  -0.14491   0.24443  -0.00072  -0.20310
   1    13     8         -0.17441  -0.15851   0.00022   0.10437  -0.06020
   2    13     8          0.00698   0.00507  -0.00143  -0.00133   0.00086
   3    13     8          0.14744   0.13203   0.00071   0.24545  -0.16420
   1    14     8          0.17441   0.15851   0.00022   0.10437   0.06020
   2    14     8         -0.00698  -0.00507  -0.00143  -0.00133  -0.00086
   3    14     8          0.14744   0.13203  -0.00071  -0.24545  -0.16420
   1    15     8          0.00000   0.00000   0.00001  -0.00237   0.00000
   2    15     8          0.00000   0.00000   0.00105  -0.00002   0.00000
   3    15     8         -0.00114   0.00455   0.00000   0.00000   0.00000
   1    16    45          0.00000   0.00000  -0.00012  -0.00925   0.00000
   2    16    45          0.00000   0.00000   0.00934  -0.00011   0.00000
   3    16    45         -0.00090  -0.02619   0.00000   0.00000  -0.00115
   1    17    45          0.00000   0.00000  -0.00012  -0.00925   0.00000
   2    17    45          0.00000   0.00000   0.00934  -0.00011   0.00000
   3    17    45          0.00090   0.02619   0.00000   0.00000   0.00115
   1    18     8         -0.00660   0.00576  -0.00137   0.00133  -0.00106
   2    18     8         -0.15939   0.17378  -0.10433   0.00022  -0.07420
   3    18     8         -0.13488   0.14491   0.24443  -0.00072   0.20310
   1    19     8         -0.17441  -0.15851   0.00022   0.10437  -0.06020
   2    19     8          0.00698   0.00507  -0.00143  -0.00133   0.00086
   3    19     8         -0.14744  -0.13203  -0.00071  -0.24545   0.16420
   1    20     6         -0.05344  -0.04307   0.00041   0.14156   0.09436
   2    20     6          0.03127   0.02666   0.00127   0.02261   0.01363
   3    20     6          0.00000   0.00000   0.00000   0.00000   0.00000
   1    21     8         -0.00660   0.00576  -0.00137   0.00133  -0.00106
   2    21     8         -0.15939   0.17378  -0.10433   0.00022  -0.07420
   3    21     8          0.13488  -0.14491  -0.24443   0.00072  -0.20310
   1    22     8          0.17441   0.15851   0.00022   0.10437   0.06020
   2    22     8         -0.00698  -0.00507  -0.00143  -0.00133  -0.00086
   3    22     8         -0.14744  -0.13203   0.00071   0.24545   0.16420
   1    23     8          0.00000   0.00000   0.00001  -0.00237   0.00000
   2    23     8          0.00000   0.00000   0.00105  -0.00002   0.00000
   3    23     8          0.00114  -0.00455   0.00000   0.00000   0.00000
   1    24     6          0.02884  -0.02942   0.02249  -0.00129   0.01661
   2    24     6          0.04899  -0.04730  -0.14194   0.00042  -0.11708
   3    24     6          0.00000   0.00000   0.00000   0.00000   0.00000
   1    25     6         -0.19770  -0.18245  -0.00079  -0.26466  -0.16120
   2    25     6         -0.01044  -0.00999  -0.00028  -0.01852  -0.01132
   3    25     6          0.00000   0.00000   0.00000   0.00000   0.00000
   1    26     6         -0.00931   0.01070  -0.01833   0.00031  -0.01379
   2    26     6          0.18026  -0.19934   0.26492  -0.00080   0.19916
   3    26     6          0.00000   0.00000   0.00000   0.00000   0.00000
   1    27     1         -0.01808   0.01911  -0.00966  -0.00064  -0.00647
   2    27     1          0.15551  -0.17579   0.31015  -0.00380   0.23698
   3    27     1          0.00000   0.00000   0.00000   0.00000   0.00000
   1    28     1         -0.01152   0.01081   0.00786  -0.00127   0.00593
   2    28     1          0.19911  -0.21794   0.29208   0.00044   0.22176
   3    28     1         -0.00315   0.00353  -0.01300   0.00027  -0.01029
   1    29     1         -0.01152   0.01081   0.00786  -0.00127   0.00593
   2    29     1          0.19911  -0.21794   0.29208   0.00044   0.22176
   3    29     1          0.00315  -0.00353   0.01300  -0.00027   0.01029
   1    30     1         -0.17160  -0.16168  -0.00378  -0.31020  -0.19223
   2    30     1         -0.01969  -0.01740   0.00068  -0.00975  -0.00525
   3    30     1          0.00000   0.00000   0.00000   0.00000   0.00000
   1    31     1         -0.21819  -0.19935   0.00044  -0.29142  -0.17925
   2    31     1         -0.01233  -0.00968   0.00128   0.00775   0.00474
   3    31     1          0.00359   0.00335   0.00026   0.01284   0.00825
   1    32     1         -0.21819  -0.19935   0.00044  -0.29142  -0.17925
   2    32     1         -0.01233  -0.00968   0.00128   0.00775   0.00474
   3    32     1         -0.00359  -0.00335  -0.00026  -0.01284  -0.00825
   1    33     1         -0.00074  -0.00140   0.00008   0.00014  -0.00072
   2    33     1          0.00005  -0.00008   0.00628   0.00015   0.00003
   3    33     1          0.00024  -0.00701   0.00018   0.00428  -0.00103
   1    34     1          0.00074   0.00140   0.00008   0.00014   0.00072
   2    34     1         -0.00005   0.00008   0.00628   0.00015  -0.00003
   3    34     1          0.00024  -0.00701  -0.00018  -0.00428  -0.00103
   1    35     1          0.00074   0.00140   0.00008   0.00014   0.00072
   2    35     1         -0.00005   0.00008   0.00628   0.00015  -0.00003
   3    35     1         -0.00024   0.00701   0.00018   0.00428   0.00103
   1    36     1         -0.00074  -0.00140   0.00008   0.00014  -0.00072
   2    36     1          0.00005  -0.00008   0.00628   0.00015   0.00003
   3    36     1         -0.00024   0.00701  -0.00018  -0.00428   0.00103
                          56        57        58        59        60
                          AG        BG        BG        AU        AU
       Frequencies ---   903.5340 1014.1413 1014.2189 1015.9720 1016.4338
    Reduced masses ---     7.7471    1.5439    1.5436    1.5271    1.5186
   Force constants ---     3.7263    0.9356    0.9355    0.9287    0.9244
    IR Intensities ---     0.0000    0.0000    0.0000    0.0032   10.8669
 Coord Atom Element:
   1     1     6         -0.01286   0.00000   0.00000   0.00000   0.00000
   2     1     6          0.09471   0.00000   0.00000   0.00000   0.00000
   3     1     6          0.00000  -0.01758  -0.00031   0.00802   0.00558
   1     2     6          0.01086   0.00000   0.00000   0.00000   0.00000
   2     2     6         -0.16023   0.00000   0.00000   0.00000   0.00000
   3     2     6          0.00000  -0.12149  -0.00177   0.08973   0.08160
   1     3     6          0.11687   0.00000   0.00000   0.00000   0.00000
   2     3     6          0.01617   0.00000   0.00000   0.00000   0.00000
   3     3     6          0.00000   0.00031  -0.01748  -0.00748   0.00641
   1     4     6         -0.19845   0.00000   0.00000   0.00000   0.00000
   2     4     6         -0.01365   0.00000   0.00000   0.00000   0.00000
   3     4     6          0.00000   0.00177  -0.12148  -0.08158   0.08970
   1     5     1          0.00557   0.00000   0.00000   0.00000   0.00000
   2     5     1         -0.18875   0.00000   0.00000   0.00000   0.00000
   3     5     1          0.00000   0.18680   0.00253  -0.13890  -0.12676
   1     6     1         -0.00443  -0.03838  -0.00040   0.02867   0.02624
   2     6     1         -0.17852  -0.45610  -0.00683   0.33750   0.30693
   3     6     1          0.00813   0.10976   0.00158  -0.08167  -0.07439
   1     7     1         -0.00443   0.03838   0.00040  -0.02867  -0.02624
   2     7     1         -0.17852   0.45610   0.00683  -0.33750  -0.30693
   3     7     1         -0.00813   0.10976   0.00158  -0.08167  -0.07439
   1     8     1         -0.23435   0.00000   0.00000   0.00000   0.00000
   2     8     1         -0.00691   0.00000   0.00000   0.00000   0.00000
   3     8     1          0.00000  -0.00254   0.18689   0.12629  -0.13934
   1     9     1         -0.22076   0.00684  -0.45606  -0.30682   0.33736
   2     9     1          0.00548  -0.00039   0.03793   0.02574  -0.02849
   3     9     1          0.00998  -0.00159   0.11002   0.07442  -0.08194
   1    10     1         -0.22076  -0.00684   0.45606   0.30682  -0.33736
   2    10     1          0.00548   0.00039  -0.03793  -0.02574   0.02849
   3    10     1         -0.00998  -0.00159   0.11002   0.07442  -0.08194
   1    11     8          0.00075  -0.00044  -0.00030   0.00047   0.00056
   2    11     8          0.06051   0.04362   0.00060  -0.03243  -0.02907
   3    11     8          0.16673   0.03877   0.00060  -0.02665  -0.02358
   1    12     8          0.00075   0.00044   0.00030  -0.00047  -0.00056
   2    12     8          0.06051  -0.04362  -0.00060   0.03243   0.02907
   3    12     8         -0.16673   0.03877   0.00060  -0.02665  -0.02358
   1    13     8          0.07509  -0.00059   0.04373   0.02959  -0.03206
   2    13     8         -0.00093  -0.00031   0.00045   0.00042  -0.00061
   3    13     8          0.20616  -0.00059   0.03860   0.02422  -0.02593
   1    14     8         -0.07509  -0.00059   0.04373  -0.02959   0.03206
   2    14     8          0.00093  -0.00031   0.00045  -0.00042   0.00061
   3    14     8          0.20616   0.00059  -0.03860   0.02422  -0.02593
   1    15     8          0.00000   0.00003  -0.00036   0.00000   0.00000
   2    15     8          0.00000  -0.00050  -0.00001   0.00000   0.00000
   3    15     8          0.00000   0.00000   0.00000   0.00027  -0.00037
   1    16    45          0.00000  -0.00022  -0.00165   0.00000   0.00000
   2    16    45          0.00000  -0.00159   0.00022   0.00000   0.00000
   3    16    45         -0.01075   0.00000   0.00000  -0.00002  -0.00029
   1    17    45          0.00000   0.00022   0.00165   0.00000   0.00000
   2    17    45          0.00000   0.00159  -0.00022   0.00000   0.00000
   3    17    45          0.01075   0.00000   0.00000  -0.00002  -0.00029
   1    18     8         -0.00075  -0.00044  -0.00030  -0.00047  -0.00056
   2    18     8         -0.06051   0.04362   0.00060   0.03243   0.02907
   3    18     8          0.16673  -0.03877  -0.00060  -0.02665  -0.02358
   1    19     8          0.07509   0.00059  -0.04373  -0.02959   0.03206
   2    19     8         -0.00093   0.00031  -0.00045  -0.00042   0.00061
   3    19     8         -0.20616  -0.00059   0.03860   0.02422  -0.02593
   1    20     6         -0.11687   0.00000   0.00000   0.00000   0.00000
   2    20     6         -0.01617   0.00000   0.00000   0.00000   0.00000
   3    20     6          0.00000  -0.00031   0.01748  -0.00748   0.00641
   1    21     8         -0.00075   0.00044   0.00030   0.00047   0.00056
   2    21     8         -0.06051  -0.04362  -0.00060  -0.03243  -0.02907
   3    21     8         -0.16673  -0.03877  -0.00060  -0.02665  -0.02358
   1    22     8         -0.07509   0.00059  -0.04373   0.02959  -0.03206
   2    22     8          0.00093   0.00031  -0.00045   0.00042  -0.00061
   3    22     8         -0.20616   0.00059  -0.03860   0.02422  -0.02593
   1    23     8          0.00000  -0.00003   0.00036   0.00000   0.00000
   2    23     8          0.00000   0.00050   0.00001   0.00000   0.00000
   3    23     8          0.00000   0.00000   0.00000   0.00027  -0.00037
   1    24     6          0.01286   0.00000   0.00000   0.00000   0.00000
   2    24     6         -0.09471   0.00000   0.00000   0.00000   0.00000
   3    24     6          0.00000   0.01758   0.00031   0.00802   0.00558
   1    25     6          0.19845   0.00000   0.00000   0.00000   0.00000
   2    25     6          0.01365   0.00000   0.00000   0.00000   0.00000
   3    25     6          0.00000  -0.00177   0.12148  -0.08158   0.08970
   1    26     6         -0.01086   0.00000   0.00000   0.00000   0.00000
   2    26     6          0.16023   0.00000   0.00000   0.00000   0.00000
   3    26     6          0.00000   0.12149   0.00177   0.08973   0.08160
   1    27     1         -0.00557   0.00000   0.00000   0.00000   0.00000
   2    27     1          0.18875   0.00000   0.00000   0.00000   0.00000
   3    27     1          0.00000  -0.18680  -0.00253  -0.13890  -0.12676
   1    28     1          0.00443   0.03838   0.00040   0.02867   0.02624
   2    28     1          0.17852   0.45610   0.00683   0.33750   0.30693
   3    28     1         -0.00813  -0.10976  -0.00158  -0.08167  -0.07439
   1    29     1          0.00443  -0.03838  -0.00040  -0.02867  -0.02624
   2    29     1          0.17852  -0.45610  -0.00683  -0.33750  -0.30693
   3    29     1          0.00813  -0.10976  -0.00158  -0.08167  -0.07439
   1    30     1          0.23435   0.00000   0.00000   0.00000   0.00000
   2    30     1          0.00691   0.00000   0.00000   0.00000   0.00000
   3    30     1          0.00000   0.00254  -0.18689   0.12629  -0.13934
   1    31     1          0.22076  -0.00684   0.45606  -0.30682   0.33736
   2    31     1         -0.00548   0.00039  -0.03793   0.02574  -0.02849
   3    31     1         -0.00998   0.00159  -0.11002   0.07442  -0.08194
   1    32     1          0.22076   0.00684  -0.45606   0.30682  -0.33736
   2    32     1         -0.00548  -0.00039   0.03793  -0.02574   0.02849
   3    32     1          0.00998   0.00159  -0.11002   0.07442  -0.08194
   1    33     1          0.00045   0.00007  -0.00179  -0.00069   0.00108
   2    33     1          0.00002  -0.00223   0.00000   0.00004   0.00002
   3    33     1         -0.00003   0.00013  -0.00355  -0.00076   0.00147
   1    34     1         -0.00045   0.00007  -0.00179   0.00069  -0.00108
   2    34     1         -0.00002  -0.00223   0.00000  -0.00004  -0.00002
   3    34     1         -0.00003  -0.00013   0.00355  -0.00076   0.00147
   1    35     1         -0.00045  -0.00007   0.00179  -0.00069   0.00108
   2    35     1         -0.00002   0.00223   0.00000   0.00004   0.00002
   3    35     1          0.00003  -0.00013   0.00355  -0.00076   0.00147
   1    36     1          0.00045  -0.00007   0.00179   0.00069  -0.00108
   2    36     1          0.00002   0.00223   0.00000  -0.00004  -0.00002
   3    36     1          0.00003   0.00013  -0.00355  -0.00076   0.00147
                          61        62        63        64        65
                          AG        BU        BU        AG        AG
       Frequencies ---  1042.8558 1044.2567 1044.3477 1044.5453 1336.6115
    Reduced masses ---     1.6037    1.6010    1.6029    1.6019    6.3413
   Force constants ---     1.0276    1.0286    1.0300    1.0298    6.6748
    IR Intensities ---     0.0000   16.6370   15.9097    0.0000    0.0000
 Coord Atom Element:
   1     1     6          0.08021   0.00045   0.11661   0.08473  -0.00490
   2     1     6          0.00349  -0.00053   0.00528   0.00372   0.30636
   3     1     6          0.00000   0.00000   0.00000   0.00000   0.00000
   1     2     6         -0.07712  -0.00063  -0.11219  -0.08126   0.00906
   2     2     6         -0.00854   0.00081  -0.01274  -0.00917  -0.05225
   3     2     6          0.00000   0.00000   0.00000   0.00000   0.00000
   1     3     6          0.00377   0.00540   0.00052  -0.00361  -0.28399
   2     3     6         -0.08458  -0.11623   0.00045   0.07993  -0.00480
   3     3     6          0.00000   0.00000   0.00000   0.00000   0.00000
   1     4     6         -0.00903  -0.01274  -0.00081   0.00867   0.04883
   2     4     6          0.08160   0.11222  -0.00063  -0.07691   0.00840
   3     4     6          0.00000   0.00000   0.00000   0.00000   0.00000
   1     5     1          0.04822  -0.00022   0.07036   0.05136  -0.02362
   2     5     1          0.35014   0.00168   0.50938   0.37002  -0.16605
   3     5     1          0.00000   0.00000   0.00000   0.00000   0.00000
   1     6     1          0.13904   0.00180   0.20253   0.14713  -0.02628
   2     6     1         -0.16796  -0.00117  -0.24490  -0.17781  -0.22877
   3     6     1         -0.03987  -0.00040  -0.05788  -0.04190   0.08165
   1     7     1          0.13904   0.00180   0.20253   0.14713  -0.02628
   2     7     1         -0.16796  -0.00117  -0.24490  -0.17781  -0.22877
   3     7     1          0.03987   0.00040   0.05788   0.04190  -0.08165
   1     8     1          0.37015   0.50894  -0.00168  -0.34985   0.15499
   2     8     1         -0.05074  -0.06995  -0.00022   0.04834  -0.02213
   3     8     1          0.00000   0.00000   0.00000   0.00000   0.00000
   1     9     1         -0.17791  -0.24517   0.00117   0.16848   0.21176
   2     9     1         -0.14739  -0.20292   0.00180   0.13952  -0.02339
   3     9     1         -0.04218  -0.05790   0.00040   0.03966  -0.07491
   1    10     1         -0.17791  -0.24517   0.00117   0.16848   0.21176
   2    10     1         -0.14739  -0.20292   0.00180   0.13952  -0.02339
   3    10     1          0.04218   0.05790  -0.00040  -0.03966   0.07491
   1    11     8         -0.01102   0.00005  -0.01543  -0.01178   0.00071
   2    11     8          0.00211   0.00008   0.00336   0.00235  -0.07800
   3    11     8          0.00116  -0.00022   0.00190   0.00144  -0.07955
   1    12     8         -0.01102   0.00005  -0.01543  -0.01178   0.00071
   2    12     8          0.00211   0.00008   0.00336   0.00235  -0.07800
   3    12     8         -0.00116   0.00022  -0.00190  -0.00144   0.07955
   1    13     8          0.00226   0.00340  -0.00005  -0.00225   0.07205
   2    13     8          0.01160   0.01533   0.00004  -0.01107   0.00069
   3    13     8          0.00123   0.00190   0.00021  -0.00136   0.07361
   1    14     8         -0.00226   0.00340  -0.00005   0.00225  -0.07205
   2    14     8         -0.01160   0.01533   0.00004   0.01107  -0.00069
   3    14     8          0.00123  -0.00190  -0.00021  -0.00136   0.07361
   1    15     8          0.00000  -0.00003   0.00002   0.00000   0.00000
   2    15     8          0.00000   0.00012   0.00002   0.00000   0.00000
   3    15     8         -0.00006   0.00000   0.00000  -0.00001   0.00117
   1    16    45          0.00000  -0.00040  -0.00034   0.00000   0.00000
   2    16    45          0.00000   0.00032  -0.00039   0.00000   0.00000
   3    16    45          0.00000   0.00000   0.00000   0.00000  -0.00017
   1    17    45          0.00000  -0.00040  -0.00034   0.00000   0.00000
   2    17    45          0.00000   0.00032  -0.00039   0.00000   0.00000
   3    17    45          0.00000   0.00000   0.00000   0.00000   0.00017
   1    18     8          0.01102   0.00005  -0.01543   0.01178  -0.00071
   2    18     8         -0.00211   0.00008   0.00336  -0.00235   0.07800
   3    18     8          0.00116   0.00022  -0.00190   0.00144  -0.07955
   1    19     8          0.00226   0.00340  -0.00005  -0.00225   0.07205
   2    19     8          0.01160   0.01533   0.00004  -0.01107   0.00069
   3    19     8         -0.00123  -0.00190  -0.00021   0.00136  -0.07361
   1    20     6         -0.00377   0.00540   0.00052   0.00361   0.28399
   2    20     6          0.08458  -0.11623   0.00045  -0.07993   0.00480
   3    20     6          0.00000   0.00000   0.00000   0.00000   0.00000
   1    21     8          0.01102   0.00005  -0.01543   0.01178  -0.00071
   2    21     8         -0.00211   0.00008   0.00336  -0.00235   0.07800
   3    21     8         -0.00116  -0.00022   0.00190  -0.00144   0.07955
   1    22     8         -0.00226   0.00340  -0.00005   0.00225  -0.07205
   2    22     8         -0.01160   0.01533   0.00004   0.01107  -0.00069
   3    22     8         -0.00123   0.00190   0.00021   0.00136  -0.07361
   1    23     8          0.00000  -0.00003   0.00002   0.00000   0.00000
   2    23     8          0.00000   0.00012   0.00002   0.00000   0.00000
   3    23     8          0.00006   0.00000   0.00000   0.00001  -0.00117
   1    24     6         -0.08021   0.00045   0.11661  -0.08473   0.00490
   2    24     6         -0.00349  -0.00053   0.00528  -0.00372  -0.30636
   3    24     6          0.00000   0.00000   0.00000   0.00000   0.00000
   1    25     6          0.00903  -0.01274  -0.00081  -0.00867  -0.04883
   2    25     6         -0.08160   0.11222  -0.00063   0.07691  -0.00840
   3    25     6          0.00000   0.00000   0.00000   0.00000   0.00000
   1    26     6          0.07712  -0.00063  -0.11219   0.08126  -0.00906
   2    26     6          0.00854   0.00081  -0.01274   0.00917   0.05225
   3    26     6          0.00000   0.00000   0.00000   0.00000   0.00000
   1    27     1         -0.04822  -0.00022   0.07036  -0.05136   0.02362
   2    27     1         -0.35014   0.00168   0.50938  -0.37002   0.16605
   3    27     1          0.00000   0.00000   0.00000   0.00000   0.00000
   1    28     1         -0.13904   0.00180   0.20253  -0.14713   0.02628
   2    28     1          0.16796  -0.00117  -0.24490   0.17781   0.22877
   3    28     1          0.03987  -0.00040  -0.05788   0.04190  -0.08165
   1    29     1         -0.13904   0.00180   0.20253  -0.14713   0.02628
   2    29     1          0.16796  -0.00117  -0.24490   0.17781   0.22877
   3    29     1         -0.03987   0.00040   0.05788  -0.04190   0.08165
   1    30     1         -0.37015   0.50894  -0.00168   0.34985  -0.15499
   2    30     1          0.05074  -0.06995  -0.00022  -0.04834   0.02213
   3    30     1          0.00000   0.00000   0.00000   0.00000   0.00000
   1    31     1          0.17791  -0.24517   0.00117  -0.16848  -0.21176
   2    31     1          0.14739  -0.20292   0.00180  -0.13952   0.02339
   3    31     1          0.04218  -0.05790   0.00040  -0.03966   0.07491
   1    32     1          0.17791  -0.24517   0.00117  -0.16848  -0.21176
   2    32     1          0.14739  -0.20292   0.00180  -0.13952   0.02339
   3    32     1         -0.04218   0.05790  -0.00040   0.03966  -0.07491
   1    33     1          0.00008  -0.00005   0.00059   0.00002   0.00412
   2    33     1          0.00000  -0.00146  -0.00041  -0.00083   0.00007
   3    33     1          0.00019  -0.00007   0.00099   0.00003   0.00577
   1    34     1         -0.00008  -0.00005   0.00059  -0.00002  -0.00412
   2    34     1          0.00000  -0.00146  -0.00041   0.00083  -0.00007
   3    34     1          0.00019   0.00007  -0.00099   0.00003   0.00577
   1    35     1         -0.00008  -0.00005   0.00059  -0.00002  -0.00412
   2    35     1          0.00000  -0.00146  -0.00041   0.00083  -0.00007
   3    35     1         -0.00019  -0.00007   0.00099  -0.00003  -0.00577
   1    36     1          0.00008  -0.00005   0.00059   0.00002   0.00412
   2    36     1          0.00000  -0.00146  -0.00041  -0.00083   0.00007
   3    36     1         -0.00019   0.00007  -0.00099  -0.00003  -0.00577
                          66        67        68        69        70
                          BU        BU        AG        AG        BG
       Frequencies ---  1337.3800 1338.3947 1348.4255 1378.8901 1378.9094
    Reduced masses ---     6.2460    6.1627    5.1227    1.3073    5.2118
   Force constants ---     6.5821    6.5041    5.4879    1.4644    5.8387
    IR Intensities ---   308.7416  299.7009    0.0000    0.0000    0.0000
 Coord Atom Element:
   1     1     6         -0.00662  -0.00174   0.00368   0.00015   0.00000
   2     1     6          0.41503   0.00118  -0.25064   0.03353   0.00000
   3     1     6          0.00000   0.00000   0.00000   0.00000   0.36625
   1     2     6          0.01235   0.00034  -0.00749   0.00794   0.00000
   2     2     6         -0.06979  -0.00053   0.03136  -0.09156   0.00000
   3     2     6          0.00000   0.00000   0.00000   0.00000  -0.08307
   1     3     6         -0.00118   0.41214  -0.27084  -0.01819   0.00000
   2     3     6         -0.00179   0.00691  -0.00425   0.00025   0.00000
   3     3     6          0.00000   0.00000   0.00000   0.00000  -0.00133
   1     4     6          0.00053  -0.06875   0.03458   0.05823   0.00000
   2     4     6          0.00037  -0.01230   0.00808   0.00519   0.00000
   3     4     6          0.00000   0.00000   0.00000   0.00000   0.00166
   1     5     1         -0.03344   0.00158   0.03329   0.12778   0.00000
   2     5     1         -0.23001   0.00381   0.17230   0.32566   0.00000
   3     5     1          0.00000   0.00000   0.00000   0.00000   0.44640
   1     6     1         -0.03465  -0.00376   0.01599  -0.11206  -0.21749
   2     6     1         -0.31334  -0.00118   0.22913   0.29656  -0.06749
   3     6     1          0.11209   0.00253  -0.08639  -0.09826   0.09489
   1     7     1         -0.03465  -0.00376   0.01599  -0.11206   0.21749
   2     7     1         -0.31334  -0.00118   0.22913   0.29656   0.06749
   3     7     1         -0.11209  -0.00253   0.08639   0.09826   0.09489
   1     8     1         -0.00383  -0.23346   0.18640  -0.21199   0.00000
   2     8     1          0.00160   0.03489  -0.03586   0.08268   0.00000
   3     8     1          0.00000   0.00000   0.00000   0.00000  -0.01966
   1     9     1          0.00124  -0.31488   0.24589  -0.19154  -0.00699
   2     9     1         -0.00384   0.03261  -0.01631  -0.07335  -0.01105
   3     9     1         -0.00261   0.11224  -0.09192   0.06266  -0.00204
   1    10     1          0.00124  -0.31488   0.24589  -0.19154   0.00699
   2    10     1         -0.00384   0.03261  -0.01631  -0.07335   0.01105
   3    10     1          0.00261  -0.11224   0.09192  -0.06266  -0.00204
   1    11     8          0.00083   0.00146  -0.00054   0.00002   0.00009
   2    11     8         -0.10241  -0.00035   0.06452  -0.00698  -0.05257
   3    11     8         -0.10890  -0.00030   0.06391  -0.00622  -0.12487
   1    12     8          0.00083   0.00146  -0.00054   0.00002  -0.00009
   2    12     8         -0.10241  -0.00035   0.06452  -0.00698   0.05257
   3    12     8          0.10890   0.00030  -0.06391   0.00622  -0.12487
   1    13     8          0.00035  -0.10137   0.06944   0.00360   0.00032
   2    13     8          0.00146  -0.00088   0.00062   0.00000   0.00134
   3    13     8          0.00030  -0.10774   0.06885   0.00320   0.00064
   1    14     8          0.00035  -0.10137  -0.06944  -0.00360   0.00032
   2    14     8          0.00146  -0.00088  -0.00062   0.00000   0.00134
   3    14     8         -0.00030   0.10774   0.06885   0.00320  -0.00064
   1    15     8          0.00001   0.00031   0.00000   0.00000  -0.00003
   2    15     8          0.00044  -0.00002   0.00000   0.00000   0.00262
   3    15     8          0.00000   0.00000  -0.00026   0.00017   0.00000
   1    16    45          0.00006  -0.00033   0.00000   0.00000  -0.00002
   2    16    45         -0.00033  -0.00006   0.00000   0.00000  -0.00352
   3    16    45          0.00000   0.00000   0.00336  -0.00013   0.00000
   1    17    45          0.00006  -0.00033   0.00000   0.00000   0.00002
   2    17    45         -0.00033  -0.00006   0.00000   0.00000   0.00352
   3    17    45          0.00000   0.00000  -0.00336   0.00013   0.00000
   1    18     8          0.00083   0.00146   0.00054  -0.00002   0.00009
   2    18     8         -0.10241  -0.00035  -0.06452   0.00698  -0.05257
   3    18     8          0.10890   0.00030   0.06391  -0.00622   0.12487
   1    19     8          0.00035  -0.10137   0.06944   0.00360  -0.00032
   2    19     8          0.00146  -0.00088   0.00062   0.00000  -0.00134
   3    19     8         -0.00030   0.10774  -0.06885  -0.00320   0.00064
   1    20     6         -0.00118   0.41214   0.27084   0.01819   0.00000
   2    20     6         -0.00179   0.00691   0.00425  -0.00025   0.00000
   3    20     6          0.00000   0.00000   0.00000   0.00000   0.00133
   1    21     8          0.00083   0.00146   0.00054  -0.00002  -0.00009
   2    21     8         -0.10241  -0.00035  -0.06452   0.00698   0.05257
   3    21     8         -0.10890  -0.00030  -0.06391   0.00622   0.12487
   1    22     8          0.00035  -0.10137  -0.06944  -0.00360  -0.00032
   2    22     8          0.00146  -0.00088  -0.00062   0.00000  -0.00134
   3    22     8          0.00030  -0.10774  -0.06885  -0.00320  -0.00064
   1    23     8          0.00001   0.00031   0.00000   0.00000   0.00003
   2    23     8          0.00044  -0.00002   0.00000   0.00000  -0.00262
   3    23     8          0.00000   0.00000   0.00026  -0.00017   0.00000
   1    24     6         -0.00662  -0.00174  -0.00368  -0.00015   0.00000
   2    24     6          0.41503   0.00118   0.25064  -0.03353   0.00000
   3    24     6          0.00000   0.00000   0.00000   0.00000  -0.36625
   1    25     6          0.00053  -0.06875  -0.03458  -0.05823   0.00000
   2    25     6          0.00037  -0.01230  -0.00808  -0.00519   0.00000
   3    25     6          0.00000   0.00000   0.00000   0.00000  -0.00166
   1    26     6          0.01235   0.00034   0.00749  -0.00794   0.00000
   2    26     6         -0.06979  -0.00053  -0.03136   0.09156   0.00000
   3    26     6          0.00000   0.00000   0.00000   0.00000   0.08307
   1    27     1         -0.03344   0.00158  -0.03329  -0.12778   0.00000
   2    27     1         -0.23001   0.00381  -0.17230  -0.32566   0.00000
   3    27     1          0.00000   0.00000   0.00000   0.00000  -0.44640
   1    28     1         -0.03465  -0.00376  -0.01599   0.11206   0.21749
   2    28     1         -0.31334  -0.00118  -0.22913  -0.29656   0.06749
   3    28     1          0.11209   0.00253   0.08639   0.09826  -0.09489
   1    29     1         -0.03465  -0.00376  -0.01599   0.11206  -0.21749
   2    29     1         -0.31334  -0.00118  -0.22913  -0.29656  -0.06749
   3    29     1         -0.11209  -0.00253  -0.08639  -0.09826  -0.09489
   1    30     1         -0.00383  -0.23346  -0.18640   0.21199   0.00000
   2    30     1          0.00160   0.03489   0.03586  -0.08268   0.00000
   3    30     1          0.00000   0.00000   0.00000   0.00000   0.01966
   1    31     1          0.00124  -0.31488  -0.24589   0.19154   0.00699
   2    31     1         -0.00384   0.03261   0.01631   0.07335   0.01105
   3    31     1         -0.00261   0.11224   0.09192  -0.06266   0.00204
   1    32     1          0.00124  -0.31488  -0.24589   0.19154  -0.00699
   2    32     1         -0.00384   0.03261   0.01631   0.07335  -0.01105
   3    32     1          0.00261  -0.11224  -0.09192   0.06266   0.00204
   1    33     1         -0.00007  -0.00136   0.00562   0.00063  -0.00024
   2    33     1          0.00016   0.00018   0.00003   0.00024   0.01563
   3    33     1         -0.00013  -0.00315   0.00955   0.00087  -0.00029
   1    34     1         -0.00007  -0.00136  -0.00562  -0.00063  -0.00024
   2    34     1          0.00016   0.00018  -0.00003  -0.00024   0.01563
   3    34     1          0.00013   0.00315   0.00955   0.00087   0.00029
   1    35     1         -0.00007  -0.00136  -0.00562  -0.00063   0.00024
   2    35     1          0.00016   0.00018  -0.00003  -0.00024  -0.01563
   3    35     1         -0.00013  -0.00315  -0.00955  -0.00087   0.00029
   1    36     1         -0.00007  -0.00136   0.00562   0.00063   0.00024
   2    36     1          0.00016   0.00018   0.00003   0.00024  -0.01563
   3    36     1          0.00013   0.00315  -0.00955  -0.00087  -0.00029
                          71        72        73        74        75
                          BU        BU        BG        AG        AU
       Frequencies ---  1379.1461 1379.9595 1380.7586 1380.8462 1412.9994
    Reduced masses ---     1.3089    1.3114    5.1045    1.3635    2.9758
   Force constants ---     1.4668    1.4714    5.7337    1.5318    3.5006
    IR Intensities ---   108.4827  110.7018    0.0000    0.0000    0.6727
 Coord Atom Element:
   1     1     6         -0.00012   0.00052   0.00000  -0.00010   0.00000
   2     1     6         -0.03857  -0.00041   0.00000   0.03055   0.00000
   3     1     6          0.00000   0.00000   0.00132   0.00000   0.17039
   1     2     6         -0.00927  -0.00017   0.00000   0.00537   0.00000
   2     2     6          0.10864   0.00023   0.00000  -0.06096   0.00000
   3     2     6          0.00000   0.00000  -0.00168   0.00000  -0.04971
   1     3     6          0.00042  -0.03935   0.00000   0.04279   0.00000
   2     3     6          0.00053   0.00026   0.00000  -0.00009   0.00000
   3     3     6          0.00000   0.00000   0.36149   0.00000  -0.17357
   1     4     6         -0.00023   0.10879   0.00000  -0.09450   0.00000
   2     4     6         -0.00017   0.00961   0.00000  -0.00856   0.00000
   3     4     6          0.00000   0.00000  -0.08279   0.00000   0.05067
   1     5     1         -0.15169   0.00005   0.00000   0.08253   0.00000
   2     5     1         -0.38705   0.00047   0.00000   0.20761   0.00000
   3     5     1          0.00000   0.00000   0.01980   0.00000   0.35478
   1     6     1          0.13190   0.00060  -0.01115  -0.07326  -0.18620
   2     6     1         -0.35416  -0.00077   0.00704   0.18762   0.03299
   3     6     1          0.11814   0.00010   0.00206  -0.06226   0.05632
   1     7     1          0.13190   0.00060   0.01115  -0.07326   0.18620
   2     7     1         -0.35416  -0.00077  -0.00704   0.18762  -0.03299
   3     7     1         -0.11814  -0.00010   0.00206   0.06226   0.05632
   1     8     1         -0.00048  -0.38929   0.00000   0.32906   0.00000
   2     8     1          0.00005   0.15251   0.00000  -0.13006   0.00000
   3     8     1          0.00000   0.00000   0.45065   0.00000  -0.36192
   1     9     1          0.00077  -0.35223  -0.06238   0.29494  -0.03360
   2     9     1          0.00060  -0.13491   0.21966   0.11682  -0.18940
   3     9     1         -0.00010   0.11606   0.09441  -0.09658  -0.05734
   1    10     1          0.00077  -0.35223   0.06238   0.29494   0.03360
   2    10     1          0.00060  -0.13491  -0.21966   0.11682   0.18940
   3    10     1          0.00010  -0.11606   0.09441   0.09658  -0.05734
   1    11     8         -0.00003  -0.00031   0.00133   0.00003  -0.00021
   2    11     8          0.00779   0.00011  -0.00031  -0.00682  -0.03237
   3    11     8          0.00745   0.00011  -0.00063  -0.00616  -0.05932
   1    12     8         -0.00003  -0.00031  -0.00133   0.00003   0.00021
   2    12     8          0.00779   0.00011   0.00031  -0.00682   0.03237
   3    12     8         -0.00745  -0.00011  -0.00063   0.00616  -0.05932
   1    13     8         -0.00011   0.00793  -0.05247  -0.00932   0.03299
   2    13     8         -0.00031   0.00002  -0.00009  -0.00003  -0.00021
   3    13     8         -0.00011   0.00766  -0.12292  -0.00844   0.06019
   1    14     8         -0.00011   0.00793  -0.05247   0.00932  -0.03299
   2    14     8         -0.00031   0.00002  -0.00009   0.00003   0.00021
   3    14     8          0.00011  -0.00766   0.12292  -0.00844   0.06019
   1    15     8         -0.00001  -0.00005   0.00152   0.00000   0.00000
   2    15     8         -0.00019   0.00002   0.00006   0.00000   0.00000
   3    15     8          0.00000   0.00000   0.00000  -0.00062   0.00403
   1    16    45          0.00001   0.00019  -0.00326   0.00000   0.00000
   2    16    45          0.00018  -0.00001   0.00002   0.00000   0.00000
   3    16    45          0.00000   0.00000   0.00000  -0.00058  -0.00004
   1    17    45          0.00001   0.00019   0.00326   0.00000   0.00000
   2    17    45          0.00018  -0.00001  -0.00002   0.00000   0.00000
   3    17    45          0.00000   0.00000   0.00000   0.00058  -0.00004
   1    18     8         -0.00003  -0.00031   0.00133  -0.00003   0.00021
   2    18     8          0.00779   0.00011  -0.00031   0.00682   0.03237
   3    18     8         -0.00745  -0.00011   0.00063  -0.00616  -0.05932
   1    19     8         -0.00011   0.00793   0.05247  -0.00932  -0.03299
   2    19     8         -0.00031   0.00002   0.00009  -0.00003   0.00021
   3    19     8          0.00011  -0.00766  -0.12292   0.00844   0.06019
   1    20     6          0.00042  -0.03935   0.00000  -0.04279   0.00000
   2    20     6          0.00053   0.00026   0.00000   0.00009   0.00000
   3    20     6          0.00000   0.00000  -0.36149   0.00000  -0.17357
   1    21     8         -0.00003  -0.00031  -0.00133  -0.00003  -0.00021
   2    21     8          0.00779   0.00011   0.00031   0.00682  -0.03237
   3    21     8          0.00745   0.00011   0.00063   0.00616  -0.05932
   1    22     8         -0.00011   0.00793   0.05247   0.00932   0.03299
   2    22     8         -0.00031   0.00002   0.00009   0.00003  -0.00021
   3    22     8         -0.00011   0.00766   0.12292   0.00844   0.06019
   1    23     8         -0.00001  -0.00005  -0.00152   0.00000   0.00000
   2    23     8         -0.00019   0.00002  -0.00006   0.00000   0.00000
   3    23     8          0.00000   0.00000   0.00000   0.00062   0.00403
   1    24     6         -0.00012   0.00052   0.00000   0.00010   0.00000
   2    24     6         -0.03857  -0.00041   0.00000  -0.03055   0.00000
   3    24     6          0.00000   0.00000  -0.00132   0.00000   0.17039
   1    25     6         -0.00023   0.10879   0.00000   0.09450   0.00000
   2    25     6         -0.00017   0.00961   0.00000   0.00856   0.00000
   3    25     6          0.00000   0.00000   0.08279   0.00000   0.05067
   1    26     6         -0.00927  -0.00017   0.00000  -0.00537   0.00000
   2    26     6          0.10864   0.00023   0.00000   0.06096   0.00000
   3    26     6          0.00000   0.00000   0.00168   0.00000  -0.04971
   1    27     1         -0.15169   0.00005   0.00000  -0.08253   0.00000
   2    27     1         -0.38705   0.00047   0.00000  -0.20761   0.00000
   3    27     1          0.00000   0.00000  -0.01980   0.00000   0.35478
   1    28     1          0.13190   0.00060   0.01115   0.07326  -0.18620
   2    28     1         -0.35416  -0.00077  -0.00704  -0.18762   0.03299
   3    28     1          0.11814   0.00010  -0.00206   0.06226   0.05632
   1    29     1          0.13190   0.00060  -0.01115   0.07326   0.18620
   2    29     1         -0.35416  -0.00077   0.00704  -0.18762  -0.03299
   3    29     1         -0.11814  -0.00010  -0.00206  -0.06226   0.05632
   1    30     1         -0.00048  -0.38929   0.00000  -0.32906   0.00000
   2    30     1          0.00005   0.15251   0.00000   0.13006   0.00000
   3    30     1          0.00000   0.00000  -0.45065   0.00000  -0.36192
   1    31     1          0.00077  -0.35223   0.06238  -0.29494  -0.03360
   2    31     1          0.00060  -0.13491  -0.21966  -0.11682  -0.18940
   3    31     1         -0.00010   0.11606  -0.09441   0.09658  -0.05734
   1    32     1          0.00077  -0.35223  -0.06238  -0.29494   0.03360
   2    32     1          0.00060  -0.13491   0.21966  -0.11682   0.18940
   3    32     1          0.00010  -0.11606  -0.09441  -0.09658  -0.05734
   1    33     1          0.00004   0.00066   0.00916  -0.00317  -0.01714
   2    33     1          0.00134  -0.00023   0.00066  -0.00009   0.00057
   3    33     1          0.00009   0.00129   0.01749  -0.00512  -0.02600
   1    34     1          0.00004   0.00066   0.00916   0.00317   0.01714
   2    34     1          0.00134  -0.00023   0.00066   0.00009  -0.00057
   3    34     1         -0.00009  -0.00129  -0.01749  -0.00512  -0.02600
   1    35     1          0.00004   0.00066  -0.00916   0.00317  -0.01714
   2    35     1          0.00134  -0.00023  -0.00066   0.00009   0.00057
   3    35     1          0.00009   0.00129  -0.01749   0.00512  -0.02600
   1    36     1          0.00004   0.00066  -0.00916  -0.00317   0.01714
   2    36     1          0.00134  -0.00023  -0.00066  -0.00009  -0.00057
   3    36     1         -0.00009  -0.00129   0.01749   0.00512  -0.02600
                          76        77        78        79        80
                          AU        AG        BU        BU        AG
       Frequencies ---  1439.2322 1458.0612 1458.1669 1458.7035 1459.0147
    Reduced masses ---     1.3817    1.0605    1.0600    1.0604    1.0630
   Force constants ---     1.6862    1.3283    1.3279    1.3293    1.3333
    IR Intensities ---   361.4761    0.0000   30.6618   31.4058    0.0000
 Coord Atom Element:
   1     1     6          0.00000  -0.01299   0.01480  -0.00008   0.00704
   2     1     6          0.00000   0.01650  -0.01822   0.00060  -0.01027
   3     1     6          0.06957   0.00000   0.00000   0.00000   0.00000
   1     2     6          0.00000  -0.03448   0.03914   0.00011   0.01856
   2     2     6          0.00000  -0.01289   0.01433  -0.00005   0.00701
   3     2     6         -0.03796   0.00000   0.00000   0.00000   0.00000
   1     3     6          0.00000  -0.00816  -0.00059  -0.01838  -0.01778
   2     3     6          0.00000  -0.00696  -0.00008  -0.01479  -0.01303
   3     3     6          0.06778   0.00000   0.00000   0.00000   0.00000
   1     4     6          0.00000   0.00722   0.00005   0.01502   0.01354
   2     4     6          0.00000  -0.01854   0.00011  -0.03903  -0.03438
   3     4     6         -0.03710   0.00000   0.00000   0.00000   0.00000
   1     5     1          0.00000  -0.07908   0.09017  -0.00021   0.04308
   2     5     1          0.00000  -0.21138   0.24104  -0.00082   0.11563
   3     5     1          0.37000   0.00000   0.00000   0.00000   0.00000
   1     6     1         -0.20489   0.30235  -0.34366  -0.00041  -0.16310
   2     6     1          0.10323   0.13600  -0.15389  -0.00044  -0.07165
   3     6     1          0.04383  -0.23960   0.27189   0.00036   0.12857
   1     7     1          0.20489   0.30235  -0.34366  -0.00041  -0.16310
   2     7     1         -0.10323   0.13600  -0.15389  -0.00044  -0.07165
   3     7     1          0.04383   0.23960  -0.27189  -0.00036  -0.12857
   1     8     1          0.00000   0.11188   0.00083   0.23885   0.21105
   2     8     1          0.00000  -0.04192  -0.00021  -0.08927  -0.07874
   3     8     1          0.36216   0.00000   0.00000   0.00000   0.00000
   1     9     1          0.10107  -0.07539   0.00043  -0.15650  -0.13699
   2     9     1          0.20010   0.16226  -0.00041   0.34255   0.30172
   3     9     1          0.04273   0.12984  -0.00036   0.27290   0.24017
   1    10     1         -0.10107  -0.07539   0.00043  -0.15650  -0.13699
   2    10     1         -0.20010   0.16226  -0.00041   0.34255   0.30172
   3    10     1          0.04273  -0.12984   0.00036  -0.27290  -0.24017
   1    11     8         -0.00034   0.00117  -0.00127   0.00001  -0.00066
   2    11     8         -0.01449  -0.00340   0.00350  -0.00021   0.00222
   3    11     8         -0.02605  -0.00359   0.00405  -0.00017   0.00224
   1    12     8          0.00034   0.00117  -0.00127   0.00001  -0.00066
   2    12     8          0.01449  -0.00340   0.00350  -0.00021   0.00222
   3    12     8         -0.02605   0.00359  -0.00405   0.00017  -0.00224
   1    13     8         -0.01411   0.00161   0.00020   0.00350   0.00371
   2    13     8          0.00034   0.00060   0.00001   0.00126   0.00119
   3    13     8         -0.02528   0.00177   0.00017   0.00409   0.00387
   1    14     8          0.01411  -0.00161   0.00020   0.00350  -0.00371
   2    14     8         -0.00034  -0.00060   0.00001   0.00126  -0.00119
   3    14     8         -0.02528   0.00177  -0.00017  -0.00409   0.00387
   1    15     8          0.00000   0.00000   0.00001   0.00001   0.00000
   2    15     8          0.00000   0.00000  -0.00010  -0.00003   0.00000
   3    15     8         -0.00575   0.00054   0.00000   0.00000   0.00055
   1    16    45          0.00000   0.00000  -0.00006   0.00003   0.00000
   2    16    45          0.00000   0.00000   0.00002   0.00006   0.00000
   3    16    45          0.00009  -0.00005   0.00000   0.00000   0.00016
   1    17    45          0.00000   0.00000  -0.00006   0.00003   0.00000
   2    17    45          0.00000   0.00000   0.00002   0.00006   0.00000
   3    17    45          0.00009   0.00005   0.00000   0.00000  -0.00016
   1    18     8          0.00034  -0.00117  -0.00127   0.00001   0.00066
   2    18     8          0.01449   0.00340   0.00350  -0.00021  -0.00222
   3    18     8         -0.02605  -0.00359  -0.00405   0.00017   0.00224
   1    19     8          0.01411   0.00161   0.00020   0.00350   0.00371
   2    19     8         -0.00034   0.00060   0.00001   0.00126   0.00119
   3    19     8         -0.02528  -0.00177  -0.00017  -0.00409  -0.00387
   1    20     6          0.00000   0.00816  -0.00059  -0.01838   0.01778
   2    20     6          0.00000   0.00696  -0.00008  -0.01479   0.01303
   3    20     6          0.06778   0.00000   0.00000   0.00000   0.00000
   1    21     8         -0.00034  -0.00117  -0.00127   0.00001   0.00066
   2    21     8         -0.01449   0.00340   0.00350  -0.00021  -0.00222
   3    21     8         -0.02605   0.00359   0.00405  -0.00017  -0.00224
   1    22     8         -0.01411  -0.00161   0.00020   0.00350  -0.00371
   2    22     8          0.00034  -0.00060   0.00001   0.00126  -0.00119
   3    22     8         -0.02528  -0.00177   0.00017   0.00409  -0.00387
   1    23     8          0.00000   0.00000   0.00001   0.00001   0.00000
   2    23     8          0.00000   0.00000  -0.00010  -0.00003   0.00000
   3    23     8         -0.00575  -0.00054   0.00000   0.00000  -0.00055
   1    24     6          0.00000   0.01299   0.01480  -0.00008  -0.00704
   2    24     6          0.00000  -0.01650  -0.01822   0.00060   0.01027
   3    24     6          0.06957   0.00000   0.00000   0.00000   0.00000
   1    25     6          0.00000  -0.00722   0.00005   0.01502  -0.01354
   2    25     6          0.00000   0.01854   0.00011  -0.03903   0.03438
   3    25     6         -0.03710   0.00000   0.00000   0.00000   0.00000
   1    26     6          0.00000   0.03448   0.03914   0.00011  -0.01856
   2    26     6          0.00000   0.01289   0.01433  -0.00005  -0.00701
   3    26     6         -0.03796   0.00000   0.00000   0.00000   0.00000
   1    27     1          0.00000   0.07908   0.09017  -0.00021  -0.04308
   2    27     1          0.00000   0.21138   0.24104  -0.00082  -0.11563
   3    27     1          0.37000   0.00000   0.00000   0.00000   0.00000
   1    28     1         -0.20489  -0.30235  -0.34366  -0.00041   0.16310
   2    28     1          0.10323  -0.13600  -0.15389  -0.00044   0.07165
   3    28     1          0.04383   0.23960   0.27189   0.00036  -0.12857
   1    29     1          0.20489  -0.30235  -0.34366  -0.00041   0.16310
   2    29     1         -0.10323  -0.13600  -0.15389  -0.00044   0.07165
   3    29     1          0.04383  -0.23960  -0.27189  -0.00036   0.12857
   1    30     1          0.00000  -0.11188   0.00083   0.23885  -0.21105
   2    30     1          0.00000   0.04192  -0.00021  -0.08927   0.07874
   3    30     1          0.36216   0.00000   0.00000   0.00000   0.00000
   1    31     1          0.10107   0.07539   0.00043  -0.15650   0.13699
   2    31     1          0.20010  -0.16226  -0.00041   0.34255  -0.30172
   3    31     1          0.04273  -0.12984  -0.00036   0.27290  -0.24017
   1    32     1         -0.10107   0.07539   0.00043  -0.15650   0.13699
   2    32     1         -0.20010  -0.16226  -0.00041   0.34255  -0.30172
   3    32     1          0.04273   0.12984   0.00036  -0.27290   0.24017
   1    33     1          0.02061   0.00251  -0.00007   0.00030   0.00271
   2    33     1          0.00010  -0.00019   0.00077   0.00028  -0.00005
   3    33     1          0.03224   0.00387  -0.00015   0.00062   0.00429
   1    34     1         -0.02061  -0.00251  -0.00007   0.00030  -0.00271
   2    34     1         -0.00010   0.00019   0.00077   0.00028   0.00005
   3    34     1          0.03224   0.00387   0.00015  -0.00062   0.00429
   1    35     1          0.02061  -0.00251  -0.00007   0.00030  -0.00271
   2    35     1          0.00010   0.00019   0.00077   0.00028   0.00005
   3    35     1          0.03224  -0.00387  -0.00015   0.00062  -0.00429
   1    36     1         -0.02061   0.00251  -0.00007   0.00030   0.00271
   2    36     1         -0.00010  -0.00019   0.00077   0.00028  -0.00005
   3    36     1          0.03224  -0.00387   0.00015  -0.00062  -0.00429
                          81        82        83        84        85
                          BG        BG        AU        AU        AG
       Frequencies ---  1465.0904 1465.3083 1474.0166 1501.2079 1528.8581
    Reduced masses ---     1.1311    1.1363    1.3579    2.2530    1.1006
   Force constants ---     1.4304    1.4375    1.7383    2.9916    1.5157
    IR Intensities ---     0.0000    0.0000    0.6215  338.9317    0.0000
 Coord Atom Element:
   1     1     6          0.00000   0.00000   0.00000   0.00000   0.00003
   2     1     6          0.00000   0.00000   0.00000   0.00000   0.00053
   3     1     6         -0.06159  -0.00030   0.07500   0.14857   0.00000
   1     2     6          0.00000   0.00000   0.00000   0.00000   0.00020
   2     2     6          0.00000   0.00000   0.00000   0.00000  -0.00030
   3     2     6         -0.03068  -0.00197   0.01626   0.00086   0.00000
   1     3     6          0.00000   0.00000   0.00000   0.00000   0.00261
   2     3     6          0.00000   0.00000   0.00000   0.00000   0.00022
   3     3     6          0.00031  -0.06321  -0.07825   0.13645   0.00000
   1     4     6          0.00000   0.00000   0.00000   0.00000  -0.00124
   2     4     6          0.00000   0.00000   0.00000   0.00000   0.00040
   3     4     6          0.00197  -0.03042  -0.01681   0.00082   0.00000
   1     5     1          0.00000   0.00000   0.00000   0.00000   0.00077
   2     5     1          0.00000   0.00000   0.00000   0.00000   0.00190
   3     5     1          0.48130   0.02570  -0.32038  -0.23665   0.00000
   1     6     1         -0.28094  -0.01458   0.19013   0.14871  -0.00172
   2     6     1          0.22484   0.01016  -0.16893  -0.17603   0.00042
   3     6     1          0.03676   0.00238  -0.02023  -0.00321   0.00073
   1     7     1          0.28094   0.01458  -0.19013  -0.14871  -0.00172
   2     7     1         -0.22484  -0.01016   0.16893   0.17603   0.00042
   3     7     1          0.03676   0.00238  -0.02023  -0.00321  -0.00073
   1     8     1          0.00000   0.00000   0.00000   0.00000  -0.00070
   2     8     1          0.00000   0.00000   0.00000   0.00000   0.00004
   3     8     1         -0.02572   0.48115   0.33271  -0.21852   0.00000
   1     9     1         -0.01015   0.22538   0.17536  -0.16181   0.00413
   2     9     1         -0.01456   0.28048   0.19713  -0.13706  -0.00333
   3     9     1         -0.00237   0.03637   0.02085  -0.00310  -0.00421
   1    10     1          0.01015  -0.22538  -0.17536   0.16181   0.00413
   2    10     1          0.01456  -0.28048  -0.19713   0.13706  -0.00333
   3    10     1         -0.00237   0.03637   0.02085  -0.00310   0.00421
   1    11     8         -0.00070  -0.00019   0.00060   0.00053   0.00000
   2    11     8          0.00547  -0.00012  -0.01125  -0.02449  -0.00007
   3    11     8          0.01691  -0.00010  -0.02259  -0.04789  -0.00004
   1    12     8          0.00070   0.00019  -0.00060  -0.00053   0.00000
   2    12     8         -0.00547   0.00012   0.01125   0.02449  -0.00007
   3    12     8          0.01691  -0.00010  -0.02259  -0.04789   0.00004
   1    13     8          0.00012   0.00576   0.01173  -0.02234  -0.00073
   2    13     8         -0.00019   0.00071   0.00063  -0.00050  -0.00002
   3    13     8          0.00010   0.01739   0.02345  -0.04355  -0.00062
   1    14     8          0.00012   0.00576  -0.01173   0.02234   0.00073
   2    14     8         -0.00019   0.00071  -0.00063   0.00050   0.00002
   3    14     8         -0.00010  -0.01739   0.02345  -0.04355  -0.00062
   1    15     8         -0.00003  -0.00022   0.00000   0.00000   0.00000
   2    15     8         -0.00032   0.00007   0.00000   0.00000   0.00000
   3    15     8          0.00000   0.00000   0.00324  -0.03346   0.05556
   1    16    45         -0.00004   0.00063   0.00000   0.00000   0.00000
   2    16    45          0.00064   0.00004   0.00000   0.00000   0.00000
   3    16    45          0.00000   0.00000  -0.00002   0.00026  -0.00042
   1    17    45          0.00004  -0.00063   0.00000   0.00000   0.00000
   2    17    45         -0.00064  -0.00004   0.00000   0.00000   0.00000
   3    17    45          0.00000   0.00000  -0.00002   0.00026   0.00042
   1    18     8         -0.00070  -0.00019  -0.00060  -0.00053   0.00000
   2    18     8          0.00547  -0.00012   0.01125   0.02449   0.00007
   3    18     8         -0.01691   0.00010  -0.02259  -0.04789  -0.00004
   1    19     8         -0.00012  -0.00576  -0.01173   0.02234  -0.00073
   2    19     8          0.00019  -0.00071  -0.00063   0.00050  -0.00002
   3    19     8          0.00010   0.01739   0.02345  -0.04355   0.00062
   1    20     6          0.00000   0.00000   0.00000   0.00000  -0.00261
   2    20     6          0.00000   0.00000   0.00000   0.00000  -0.00022
   3    20     6         -0.00031   0.06321  -0.07825   0.13645   0.00000
   1    21     8          0.00070   0.00019   0.00060   0.00053   0.00000
   2    21     8         -0.00547   0.00012  -0.01125  -0.02449   0.00007
   3    21     8         -0.01691   0.00010  -0.02259  -0.04789   0.00004
   1    22     8         -0.00012  -0.00576   0.01173  -0.02234   0.00073
   2    22     8          0.00019  -0.00071   0.00063  -0.00050   0.00002
   3    22     8         -0.00010  -0.01739   0.02345  -0.04355   0.00062
   1    23     8          0.00003   0.00022   0.00000   0.00000   0.00000
   2    23     8          0.00032  -0.00007   0.00000   0.00000   0.00000
   3    23     8          0.00000   0.00000   0.00324  -0.03346  -0.05556
   1    24     6          0.00000   0.00000   0.00000   0.00000  -0.00003
   2    24     6          0.00000   0.00000   0.00000   0.00000  -0.00053
   3    24     6          0.06159   0.00030   0.07500   0.14857   0.00000
   1    25     6          0.00000   0.00000   0.00000   0.00000   0.00124
   2    25     6          0.00000   0.00000   0.00000   0.00000  -0.00040
   3    25     6         -0.00197   0.03042  -0.01681   0.00082   0.00000
   1    26     6          0.00000   0.00000   0.00000   0.00000  -0.00020
   2    26     6          0.00000   0.00000   0.00000   0.00000   0.00030
   3    26     6          0.03068   0.00197   0.01626   0.00086   0.00000
   1    27     1          0.00000   0.00000   0.00000   0.00000  -0.00077
   2    27     1          0.00000   0.00000   0.00000   0.00000  -0.00190
   3    27     1         -0.48130  -0.02570  -0.32038  -0.23665   0.00000
   1    28     1          0.28094   0.01458   0.19013   0.14871   0.00172
   2    28     1         -0.22484  -0.01016  -0.16893  -0.17603  -0.00042
   3    28     1         -0.03676  -0.00238  -0.02023  -0.00321  -0.00073
   1    29     1         -0.28094  -0.01458  -0.19013  -0.14871   0.00172
   2    29     1          0.22484   0.01016   0.16893   0.17603  -0.00042
   3    29     1         -0.03676  -0.00238  -0.02023  -0.00321   0.00073
   1    30     1          0.00000   0.00000   0.00000   0.00000   0.00070
   2    30     1          0.00000   0.00000   0.00000   0.00000  -0.00004
   3    30     1          0.02572  -0.48115   0.33271  -0.21852   0.00000
   1    31     1          0.01015  -0.22538   0.17536  -0.16181  -0.00413
   2    31     1          0.01456  -0.28048   0.19713  -0.13706   0.00333
   3    31     1          0.00237  -0.03637   0.02085  -0.00310   0.00421
   1    32     1         -0.01015   0.22538  -0.17536   0.16181  -0.00413
   2    32     1         -0.01456   0.28048  -0.19713   0.13706   0.00333
   3    32     1          0.00237  -0.03637   0.02085  -0.00310  -0.00421
   1    33     1         -0.00017  -0.00123  -0.01435   0.14399   0.26239
   2    33     1         -0.00179   0.00077  -0.00085   0.00083   0.00152
   3    33     1         -0.00039  -0.00229  -0.02252   0.23044   0.42373
   1    34     1         -0.00017  -0.00123   0.01435  -0.14399  -0.26239
   2    34     1         -0.00179   0.00077   0.00085  -0.00083  -0.00152
   3    34     1          0.00039   0.00229  -0.02252   0.23044   0.42373
   1    35     1          0.00017   0.00123  -0.01435   0.14399  -0.26239
   2    35     1          0.00179  -0.00077  -0.00085   0.00083  -0.00152
   3    35     1          0.00039   0.00229  -0.02252   0.23044  -0.42373
   1    36     1          0.00017   0.00123   0.01435  -0.14399   0.26239
   2    36     1          0.00179  -0.00077   0.00085  -0.00083   0.00152
   3    36     1         -0.00039  -0.00229  -0.02252   0.23044  -0.42373
                          86        87        88        89        90
                          AU        BU        AG        BU        AG
       Frequencies ---  1530.5913 2988.6051 2988.6848 2988.7887 2988.9129
    Reduced masses ---     1.2472    1.0374    1.0374    1.0374    1.0374
   Force constants ---     1.7215    5.4591    5.4594    5.4601    5.4604
    IR Intensities ---     9.9799   24.4239    0.0000   23.6441    0.0000
 Coord Atom Element:
   1     1     6          0.00000  -0.00009   0.00009  -0.00001  -0.00004
   2     1     6          0.00000  -0.00159   0.00149   0.00000  -0.00049
   3     1     6          0.04290   0.00000   0.00000   0.00000   0.00000
   1     2     6          0.00000  -0.01573   0.01487  -0.00004  -0.00518
   2     2     6          0.00000   0.03308  -0.03124   0.00011   0.01082
   3     2     6         -0.00194   0.00000   0.00000   0.00000   0.00000
   1     3     6          0.00000   0.00000  -0.00054   0.00158  -0.00148
   2     3     6          0.00000   0.00001   0.00003  -0.00009   0.00009
   3     3     6          0.05570   0.00000   0.00000   0.00000   0.00000
   1     4     6          0.00000   0.00011   0.01086  -0.03310   0.03125
   2     4     6          0.00000   0.00004   0.00516  -0.01578   0.01493
   3     4     6         -0.00264   0.00000   0.00000   0.00000   0.00000
   1     5     1          0.00000   0.50040  -0.47282   0.00153   0.16422
   2     5     1          0.00000  -0.14742   0.13933  -0.00044  -0.04843
   3     5     1         -0.04029   0.00000   0.00000   0.00000   0.00000
   1     6     1          0.02684  -0.15589   0.14726  -0.00053  -0.05104
   2     6     1         -0.03920  -0.11295   0.10669  -0.00037  -0.03699
   3     6     1          0.00161  -0.27605   0.26074  -0.00093  -0.09037
   1     7     1         -0.02684  -0.15589   0.14726  -0.00053  -0.05104
   2     7     1          0.03920  -0.11295   0.10669  -0.00037  -0.03699
   3     7     1          0.00161   0.27605  -0.26074   0.00093   0.09037
   1     8     1          0.00000  -0.00044  -0.04826   0.14739  -0.13935
   2     8     1          0.00000  -0.00153  -0.16404   0.50074  -0.47323
   3     8     1         -0.04938   0.00000   0.00000   0.00000   0.00000
   1     9     1         -0.04958  -0.00037  -0.03709   0.11309  -0.10680
   2     9     1         -0.03313   0.00053   0.05111  -0.15577   0.14710
   3     9     1          0.00258  -0.00093  -0.09047   0.27575  -0.26039
   1    10     1          0.04958  -0.00037  -0.03709   0.11309  -0.10680
   2    10     1          0.03313   0.00053   0.05111  -0.15577   0.14710
   3    10     1          0.00258   0.00093   0.09047  -0.27575   0.26039
   1    11     8          0.00012   0.00002  -0.00001   0.00001   0.00000
   2    11     8         -0.00719  -0.00008   0.00010   0.00000  -0.00004
   3    11     8         -0.01420  -0.00014   0.00015   0.00000  -0.00005
   1    12     8         -0.00012   0.00002  -0.00001   0.00001   0.00000
   2    12     8          0.00719  -0.00008   0.00010   0.00000  -0.00004
   3    12     8         -0.01420   0.00014  -0.00015   0.00000   0.00005
   1    13     8         -0.00959   0.00000  -0.00003   0.00008  -0.00010
   2    13     8         -0.00015  -0.00001  -0.00001   0.00002  -0.00001
   3    13     8         -0.01891   0.00000  -0.00005   0.00015  -0.00015
   1    14     8          0.00959   0.00000   0.00003   0.00008   0.00010
   2    14     8          0.00015  -0.00001   0.00001   0.00002   0.00001
   3    14     8         -0.01891   0.00000  -0.00005  -0.00015  -0.00015
   1    15     8          0.00000   0.00000   0.00000  -0.00001   0.00000
   2    15     8          0.00000   0.00000   0.00000   0.00000   0.00000
   3    15     8          0.05428   0.00000  -0.00001   0.00000   0.00002
   1    16    45          0.00000  -0.00001   0.00000  -0.00001   0.00000
   2    16    45          0.00000   0.00001   0.00000  -0.00001   0.00000
   3    16    45         -0.00019   0.00000   0.00000   0.00000   0.00001
   1    17    45          0.00000  -0.00001   0.00000  -0.00001   0.00000
   2    17    45          0.00000   0.00001   0.00000  -0.00001   0.00000
   3    17    45         -0.00019   0.00000   0.00000   0.00000  -0.00001
   1    18     8         -0.00012   0.00002   0.00001   0.00001   0.00000
   2    18     8          0.00719  -0.00008  -0.00010   0.00000   0.00004
   3    18     8         -0.01420   0.00014   0.00015   0.00000  -0.00005
   1    19     8          0.00959   0.00000  -0.00003   0.00008  -0.00010
   2    19     8          0.00015  -0.00001  -0.00001   0.00002  -0.00001
   3    19     8         -0.01891   0.00000   0.00005  -0.00015   0.00015
   1    20     6          0.00000   0.00000   0.00054   0.00158   0.00148
   2    20     6          0.00000   0.00001  -0.00003  -0.00009  -0.00009
   3    20     6          0.05570   0.00000   0.00000   0.00000   0.00000
   1    21     8          0.00012   0.00002   0.00001   0.00001   0.00000
   2    21     8         -0.00719  -0.00008  -0.00010   0.00000   0.00004
   3    21     8         -0.01420  -0.00014  -0.00015   0.00000   0.00005
   1    22     8         -0.00959   0.00000   0.00003   0.00008   0.00010
   2    22     8         -0.00015  -0.00001   0.00001   0.00002   0.00001
   3    22     8         -0.01891   0.00000   0.00005   0.00015   0.00015
   1    23     8          0.00000   0.00000   0.00000  -0.00001   0.00000
   2    23     8          0.00000   0.00000   0.00000   0.00000   0.00000
   3    23     8          0.05428   0.00000   0.00001   0.00000  -0.00002
   1    24     6          0.00000  -0.00009  -0.00009  -0.00001   0.00004
   2    24     6          0.00000  -0.00159  -0.00149   0.00000   0.00049
   3    24     6          0.04290   0.00000   0.00000   0.00000   0.00000
   1    25     6          0.00000   0.00011  -0.01086  -0.03310  -0.03125
   2    25     6          0.00000   0.00004  -0.00516  -0.01578  -0.01493
   3    25     6         -0.00264   0.00000   0.00000   0.00000   0.00000
   1    26     6          0.00000  -0.01573  -0.01487  -0.00004   0.00518
   2    26     6          0.00000   0.03308   0.03124   0.00011  -0.01082
   3    26     6         -0.00194   0.00000   0.00000   0.00000   0.00000
   1    27     1          0.00000   0.50040   0.47282   0.00153  -0.16422
   2    27     1          0.00000  -0.14742  -0.13933  -0.00044   0.04843
   3    27     1         -0.04029   0.00000   0.00000   0.00000   0.00000
   1    28     1          0.02684  -0.15589  -0.14726  -0.00053   0.05104
   2    28     1         -0.03920  -0.11295  -0.10669  -0.00037   0.03699
   3    28     1          0.00161  -0.27605  -0.26074  -0.00093   0.09037
   1    29     1         -0.02684  -0.15589  -0.14726  -0.00053   0.05104
   2    29     1          0.03920  -0.11295  -0.10669  -0.00037   0.03699
   3    29     1          0.00161   0.27605   0.26074   0.00093  -0.09037
   1    30     1          0.00000  -0.00044   0.04826   0.14739   0.13935
   2    30     1          0.00000  -0.00153   0.16404   0.50074   0.47323
   3    30     1         -0.04938   0.00000   0.00000   0.00000   0.00000
   1    31     1         -0.04958  -0.00037   0.03709   0.11309   0.10680
   2    31     1         -0.03313   0.00053  -0.05111  -0.15577  -0.14710
   3    31     1          0.00258  -0.00093   0.09047   0.27575   0.26039
   1    32     1          0.04958  -0.00037   0.03709   0.11309   0.10680
   2    32     1          0.03313   0.00053  -0.05111  -0.15577  -0.14710
   3    32     1          0.00258   0.00093  -0.09047  -0.27575  -0.26039
   1    33     1         -0.25649   0.00000   0.00001   0.00003  -0.00002
   2    33     1         -0.00147   0.00007  -0.00004  -0.00005  -0.00002
   3    33     1         -0.41437  -0.00003  -0.00001  -0.00003   0.00002
   1    34     1          0.25649   0.00000  -0.00001   0.00003   0.00002
   2    34     1          0.00147   0.00007   0.00004  -0.00005   0.00002
   3    34     1         -0.41437   0.00003  -0.00001   0.00003   0.00002
   1    35     1         -0.25649   0.00000  -0.00001   0.00003   0.00002
   2    35     1         -0.00147   0.00007   0.00004  -0.00005   0.00002
   3    35     1         -0.41437  -0.00003   0.00001  -0.00003  -0.00002
   1    36     1          0.25649   0.00000   0.00001   0.00003  -0.00002
   2    36     1          0.00147   0.00007  -0.00004  -0.00005  -0.00002
   3    36     1         -0.41437   0.00003   0.00001   0.00003  -0.00002
                          91        92        93        94        95
                          AG        BU        BU        AG        BG
       Frequencies ---  3080.4624 3080.4841 3080.7122 3080.8021 3117.9284
    Reduced masses ---     1.0944    1.0943    1.0944    1.0944    1.1023
   Force constants ---     6.1184    6.1184    6.1196    6.1199    6.3138
    IR Intensities ---     0.0000   25.3170   25.0751    0.0000    0.0000
 Coord Atom Element:
   1     1     6         -0.00082  -0.00091   0.00001  -0.00037   0.00000
   2     1     6          0.00085   0.00094  -0.00001   0.00040   0.00000
   3     1     6          0.00000   0.00000   0.00000   0.00000   0.00000
   1     2     6         -0.05658  -0.06171   0.00013  -0.02463   0.00000
   2     2     6         -0.01028  -0.01120   0.00002  -0.00447   0.00000
   3     2     6          0.00000   0.00000   0.00000   0.00000  -0.00003
   1     3     6          0.00036  -0.00001  -0.00096  -0.00090   0.00000
   2     3     6          0.00034  -0.00001  -0.00090  -0.00083   0.00000
   3     3     6          0.00000   0.00000   0.00000   0.00000  -0.00207
   1     4     6         -0.00451   0.00002   0.01128   0.01035   0.00000
   2     4     6          0.02463  -0.00013  -0.06171  -0.05659   0.00000
   3     4     6          0.00000   0.00000   0.00000   0.00000  -0.06552
   1     5     1          0.40670   0.44377  -0.00092   0.17721   0.00000
   2     5     1         -0.13241  -0.14455   0.00041  -0.05778   0.00000
   3     5     1          0.00000   0.00000   0.00000   0.00000   0.00004
   1     6     1          0.13851   0.15096  -0.00032   0.06018   0.00006
   2     6     1          0.12235   0.13340  -0.00020   0.05322   0.00008
   3     6     1          0.28794   0.31390  -0.00056   0.12522   0.00015
   1     7     1          0.13851   0.15096  -0.00032   0.06018  -0.00006
   2     7     1          0.12235   0.13340  -0.00020   0.05322  -0.00008
   3     7     1         -0.28794  -0.31390   0.00056  -0.12522   0.00015
   1     8     1         -0.05744   0.00041   0.14431   0.13230   0.00000
   2     8     1         -0.17678   0.00093   0.44347   0.40656   0.00000
   3     8     1          0.00000   0.00000   0.00000   0.00000  -0.01905
   1     9     1          0.05338  -0.00020  -0.13368  -0.12258   0.17998
   2     9     1         -0.06043   0.00032   0.15116   0.13861  -0.22632
   3     9     1          0.12540  -0.00056  -0.31395  -0.28791   0.40504
   1    10     1          0.05338  -0.00020  -0.13368  -0.12258  -0.17998
   2    10     1         -0.06043   0.00032   0.15116   0.13861   0.22632
   3    10     1         -0.12540   0.00056   0.31395   0.28791   0.40504
   1    11     8         -0.00001  -0.00002   0.00000   0.00001  -0.00001
   2    11     8         -0.00001  -0.00002   0.00001  -0.00002   0.00000
   3    11     8         -0.00007  -0.00008   0.00000  -0.00004   0.00000
   1    12     8         -0.00001  -0.00002   0.00000   0.00001   0.00001
   2    12     8         -0.00001  -0.00002   0.00001  -0.00002   0.00000
   3    12     8          0.00007   0.00008   0.00000   0.00004   0.00000
   1    13     8          0.00000   0.00001   0.00002   0.00002   0.00005
   2    13     8          0.00001   0.00000  -0.00002  -0.00001   0.00008
   3    13     8         -0.00003   0.00000   0.00008   0.00008   0.00041
   1    14     8          0.00000   0.00001   0.00002  -0.00002   0.00005
   2    14     8         -0.00001   0.00000  -0.00002   0.00001   0.00008
   3    14     8         -0.00003   0.00000  -0.00008   0.00008  -0.00041
   1    15     8          0.00000   0.00000   0.00001   0.00000   0.00001
   2    15     8          0.00000  -0.00001   0.00001   0.00000   0.00000
   3    15     8          0.00000   0.00000   0.00000   0.00000   0.00000
   1    16    45          0.00000   0.00000  -0.00001   0.00000   0.00002
   2    16    45          0.00000   0.00001   0.00000   0.00000   0.00000
   3    16    45          0.00000   0.00000   0.00000   0.00000   0.00000
   1    17    45          0.00000   0.00000  -0.00001   0.00000  -0.00002
   2    17    45          0.00000   0.00001   0.00000   0.00000   0.00000
   3    17    45          0.00000   0.00000   0.00000   0.00000   0.00000
   1    18     8          0.00001  -0.00002   0.00000  -0.00001  -0.00001
   2    18     8          0.00001  -0.00002   0.00001   0.00002   0.00000
   3    18     8         -0.00007   0.00008   0.00000  -0.00004   0.00000
   1    19     8          0.00000   0.00001   0.00002   0.00002  -0.00005
   2    19     8          0.00001   0.00000  -0.00002  -0.00001  -0.00008
   3    19     8          0.00003   0.00000  -0.00008  -0.00008   0.00041
   1    20     6         -0.00036  -0.00001  -0.00096   0.00090   0.00000
   2    20     6         -0.00034  -0.00001  -0.00090   0.00083   0.00000
   3    20     6          0.00000   0.00000   0.00000   0.00000   0.00207
   1    21     8          0.00001  -0.00002   0.00000  -0.00001   0.00001
   2    21     8          0.00001  -0.00002   0.00001   0.00002   0.00000
   3    21     8          0.00007  -0.00008   0.00000   0.00004   0.00000
   1    22     8          0.00000   0.00001   0.00002  -0.00002  -0.00005
   2    22     8         -0.00001   0.00000  -0.00002   0.00001  -0.00008
   3    22     8          0.00003   0.00000   0.00008  -0.00008  -0.00041
   1    23     8          0.00000   0.00000   0.00001   0.00000  -0.00001
   2    23     8          0.00000  -0.00001   0.00001   0.00000   0.00000
   3    23     8          0.00000   0.00000   0.00000   0.00000   0.00000
   1    24     6          0.00082  -0.00091   0.00001   0.00037   0.00000
   2    24     6         -0.00085   0.00094  -0.00001  -0.00040   0.00000
   3    24     6          0.00000   0.00000   0.00000   0.00000   0.00000
   1    25     6          0.00451   0.00002   0.01128  -0.01035   0.00000
   2    25     6         -0.02463  -0.00013  -0.06171   0.05659   0.00000
   3    25     6          0.00000   0.00000   0.00000   0.00000   0.06552
   1    26     6          0.05658  -0.06171   0.00013   0.02463   0.00000
   2    26     6          0.01028  -0.01120   0.00002   0.00447   0.00000
   3    26     6          0.00000   0.00000   0.00000   0.00000   0.00003
   1    27     1         -0.40670   0.44377  -0.00092  -0.17721   0.00000
   2    27     1          0.13241  -0.14455   0.00041   0.05778   0.00000
   3    27     1          0.00000   0.00000   0.00000   0.00000  -0.00004
   1    28     1         -0.13851   0.15096  -0.00032  -0.06018  -0.00006
   2    28     1         -0.12235   0.13340  -0.00020  -0.05322  -0.00008
   3    28     1         -0.28794   0.31390  -0.00056  -0.12522  -0.00015
   1    29     1         -0.13851   0.15096  -0.00032  -0.06018   0.00006
   2    29     1         -0.12235   0.13340  -0.00020  -0.05322   0.00008
   3    29     1          0.28794  -0.31390   0.00056   0.12522  -0.00015
   1    30     1          0.05744   0.00041   0.14431  -0.13230   0.00000
   2    30     1          0.17678   0.00093   0.44347  -0.40656   0.00000
   3    30     1          0.00000   0.00000   0.00000   0.00000   0.01905
   1    31     1         -0.05338  -0.00020  -0.13368   0.12258  -0.17998
   2    31     1          0.06043   0.00032   0.15116  -0.13861   0.22632
   3    31     1         -0.12540  -0.00056  -0.31395   0.28791  -0.40504
   1    32     1         -0.05338  -0.00020  -0.13368   0.12258   0.17998
   2    32     1          0.06043   0.00032   0.15116  -0.13861  -0.22632
   3    32     1          0.12540   0.00056   0.31395  -0.28791  -0.40504
   1    33     1         -0.00002   0.00001  -0.00002  -0.00001   0.00004
   2    33     1          0.00002   0.00002  -0.00013   0.00007  -0.00002
   3    33     1         -0.00003  -0.00010  -0.00004   0.00005  -0.00025
   1    34     1          0.00002   0.00001  -0.00002   0.00001   0.00004
   2    34     1         -0.00002   0.00002  -0.00013  -0.00007  -0.00002
   3    34     1         -0.00003   0.00010   0.00004   0.00005   0.00025
   1    35     1          0.00002   0.00001  -0.00002   0.00001  -0.00004
   2    35     1         -0.00002   0.00002  -0.00013  -0.00007   0.00002
   3    35     1          0.00003  -0.00010  -0.00004  -0.00005   0.00025
   1    36     1         -0.00002   0.00001  -0.00002  -0.00001  -0.00004
   2    36     1          0.00002   0.00002  -0.00013   0.00007   0.00002
   3    36     1          0.00003   0.00010   0.00004  -0.00005  -0.00025
                          96        97        98        99       100
                          AU        BG        AU        AU        AG
       Frequencies ---  3117.9806 3118.1182 3118.2549 3609.7577 3609.8587
    Reduced masses ---     1.1023    1.1024    1.1023    1.0355    1.0354
   Force constants ---     6.3137    6.3150    6.3150    7.9495    7.9494
    IR Intensities ---     5.9027    0.0000   35.2099    2.0969    0.0000
 Coord Atom Element:
   1     1     6          0.00000   0.00000   0.00000   0.00000   0.00000
   2     1     6          0.00000   0.00000   0.00000   0.00000   0.00000
   3     1     6          0.00077  -0.00205   0.00219   0.00015   0.00000
   1     2     6          0.00000   0.00000   0.00000   0.00000   0.00000
   2     2     6          0.00000   0.00000   0.00000   0.00000   0.00000
   3     2     6          0.02550  -0.06555   0.06035   0.00000   0.00000
   1     3     6          0.00000   0.00000   0.00000   0.00000  -0.00005
   2     3     6          0.00000   0.00000   0.00000   0.00000   0.00000
   3     3     6         -0.00209   0.00000   0.00104  -0.00001   0.00000
   1     4     6          0.00000   0.00000   0.00000   0.00000   0.00000
   2     4     6          0.00000   0.00000   0.00000   0.00000   0.00000
   3     4     6         -0.06033   0.00003   0.02547  -0.00001   0.00000
   1     5     1          0.00000   0.00000   0.00000   0.00000  -0.00004
   2     5     1          0.00000   0.00000   0.00000   0.00000   0.00004
   3     5     1          0.00738  -0.01904   0.01754   0.00004   0.00000
   1     6     1         -0.08797   0.22617  -0.20832  -0.00009   0.00003
   2     6     1         -0.06988   0.17962  -0.16559  -0.00012   0.00006
   3     6     1         -0.15766   0.40528  -0.37332  -0.00011  -0.00003
   1     7     1          0.08797  -0.22617   0.20832   0.00009   0.00003
   2     7     1          0.06988  -0.17962   0.16559   0.00012   0.00006
   3     7     1         -0.15766   0.40528  -0.37332  -0.00011   0.00003
   1     8     1          0.00000   0.00000   0.00000   0.00000   0.00003
   2     8     1          0.00000   0.00000   0.00000   0.00000  -0.00001
   3     8     1         -0.01753  -0.00004   0.00743  -0.00002   0.00000
   1     9     1          0.16589  -0.00008  -0.07010   0.00000   0.00000
   2     9     1         -0.20847   0.00006   0.08803  -0.00003   0.00002
   3     9     1          0.37311  -0.00015  -0.15755   0.00002   0.00006
   1    10     1         -0.16589   0.00008   0.07010   0.00000   0.00000
   2    10     1          0.20847  -0.00006  -0.08803   0.00003   0.00002
   3    10     1          0.37311  -0.00015  -0.15755   0.00002  -0.00006
   1    11     8          0.00003  -0.00008   0.00007   0.00000   0.00000
   2    11     8         -0.00004   0.00004  -0.00014  -0.00001   0.00001
   3    11     8         -0.00014   0.00040  -0.00045  -0.00008   0.00002
   1    12     8         -0.00003   0.00008  -0.00007   0.00000   0.00000
   2    12     8          0.00004  -0.00004   0.00014   0.00001   0.00001
   3    12     8         -0.00014   0.00040  -0.00045  -0.00008  -0.00002
   1    13     8          0.00012   0.00000  -0.00008   0.00006   0.00006
   2    13     8          0.00008  -0.00001  -0.00003   0.00000   0.00000
   3    13     8          0.00042   0.00000  -0.00023   0.00002   0.00004
   1    14     8         -0.00012   0.00000   0.00008  -0.00006  -0.00006
   2    14     8         -0.00008  -0.00001   0.00003   0.00000   0.00000
   3    14     8          0.00042   0.00000  -0.00023   0.00002   0.00004
   1    15     8          0.00000   0.00000   0.00000   0.00000   0.00000
   2    15     8          0.00000  -0.00003   0.00000   0.00000   0.00000
   3    15     8         -0.00001   0.00000  -0.00003   0.03036   0.03032
   1    16    45          0.00000   0.00000   0.00000   0.00000   0.00000
   2    16    45          0.00000   0.00002   0.00000   0.00000   0.00000
   3    16    45          0.00000   0.00000  -0.00001  -0.00002  -0.00001
   1    17    45          0.00000   0.00000   0.00000   0.00000   0.00000
   2    17    45          0.00000  -0.00002   0.00000   0.00000   0.00000
   3    17    45          0.00000   0.00000  -0.00001  -0.00002   0.00001
   1    18     8         -0.00003  -0.00008  -0.00007   0.00000   0.00000
   2    18     8          0.00004   0.00004   0.00014   0.00001  -0.00001
   3    18     8         -0.00014  -0.00040  -0.00045  -0.00008   0.00002
   1    19     8         -0.00012   0.00000   0.00008  -0.00006   0.00006
   2    19     8         -0.00008   0.00001   0.00003   0.00000   0.00000
   3    19     8          0.00042   0.00000  -0.00023   0.00002  -0.00004
   1    20     6          0.00000   0.00000   0.00000   0.00000   0.00005
   2    20     6          0.00000   0.00000   0.00000   0.00000   0.00000
   3    20     6         -0.00209   0.00000   0.00104  -0.00001   0.00000
   1    21     8          0.00003   0.00008   0.00007   0.00000   0.00000
   2    21     8         -0.00004  -0.00004  -0.00014  -0.00001  -0.00001
   3    21     8         -0.00014  -0.00040  -0.00045  -0.00008  -0.00002
   1    22     8          0.00012   0.00000  -0.00008   0.00006  -0.00006
   2    22     8          0.00008   0.00001  -0.00003   0.00000   0.00000
   3    22     8          0.00042   0.00000  -0.00023   0.00002  -0.00004
   1    23     8          0.00000   0.00000   0.00000   0.00000   0.00000
   2    23     8          0.00000   0.00003   0.00000   0.00000   0.00000
   3    23     8         -0.00001   0.00000  -0.00003   0.03036  -0.03032
   1    24     6          0.00000   0.00000   0.00000   0.00000   0.00000
   2    24     6          0.00000   0.00000   0.00000   0.00000   0.00000
   3    24     6          0.00077   0.00205   0.00219   0.00015   0.00000
   1    25     6          0.00000   0.00000   0.00000   0.00000   0.00000
   2    25     6          0.00000   0.00000   0.00000   0.00000   0.00000
   3    25     6         -0.06033  -0.00003   0.02547  -0.00001   0.00000
   1    26     6          0.00000   0.00000   0.00000   0.00000   0.00000
   2    26     6          0.00000   0.00000   0.00000   0.00000   0.00000
   3    26     6          0.02550   0.06555   0.06035   0.00000   0.00000
   1    27     1          0.00000   0.00000   0.00000   0.00000   0.00004
   2    27     1          0.00000   0.00000   0.00000   0.00000  -0.00004
   3    27     1          0.00738   0.01904   0.01754   0.00004   0.00000
   1    28     1         -0.08797  -0.22617  -0.20832  -0.00009  -0.00003
   2    28     1         -0.06988  -0.17962  -0.16559  -0.00012  -0.00006
   3    28     1         -0.15766  -0.40528  -0.37332  -0.00011   0.00003
   1    29     1          0.08797   0.22617   0.20832   0.00009  -0.00003
   2    29     1          0.06988   0.17962   0.16559   0.00012  -0.00006
   3    29     1         -0.15766  -0.40528  -0.37332  -0.00011  -0.00003
   1    30     1          0.00000   0.00000   0.00000   0.00000  -0.00003
   2    30     1          0.00000   0.00000   0.00000   0.00000   0.00001
   3    30     1         -0.01753   0.00004   0.00743  -0.00002   0.00000
   1    31     1          0.16589   0.00008  -0.07010   0.00000   0.00000
   2    31     1         -0.20847  -0.00006   0.08803  -0.00003  -0.00002
   3    31     1          0.37311   0.00015  -0.15755   0.00002  -0.00006
   1    32     1         -0.16589  -0.00008   0.07010   0.00000   0.00000
   2    32     1          0.20847   0.00006  -0.08803   0.00003  -0.00002
   3    32     1          0.37311   0.00015  -0.15755   0.00002   0.00006
   1    33     1          0.00001  -0.00001  -0.00021   0.43829  -0.43820
   2    33     1          0.00002  -0.00024   0.00001   0.00254  -0.00254
   3    33     1          0.00023   0.00001  -0.00009  -0.23965   0.23982
   1    34     1         -0.00001  -0.00001   0.00021  -0.43829   0.43820
   2    34     1         -0.00002  -0.00024  -0.00001  -0.00254   0.00254
   3    34     1          0.00023  -0.00001  -0.00009  -0.23965   0.23982
   1    35     1          0.00001   0.00001  -0.00021   0.43829   0.43820
   2    35     1          0.00002   0.00024   0.00001   0.00254   0.00254
   3    35     1          0.00023  -0.00001  -0.00009  -0.23965  -0.23982
   1    36     1         -0.00001   0.00001   0.00021  -0.43829  -0.43820
   2    36     1         -0.00002   0.00024  -0.00001  -0.00254  -0.00254
   3    36     1          0.00023   0.00001  -0.00009  -0.23965  -0.23982
                         101       102
                          BU        BG
       Frequencies ---  3794.8638 3794.9639
    Reduced masses ---     1.0904    1.0903
   Force constants ---     9.2515    9.2511
    IR Intensities ---   133.1733    0.0000
 Coord Atom Element:
   1     1     6          0.00002   0.00000
   2     1     6          0.00000   0.00000
   3     1     6          0.00000   0.00000
   1     2     6          0.00000   0.00000
   2     2     6          0.00000   0.00000
   3     2     6          0.00000   0.00000
   1     3     6         -0.00004   0.00000
   2     3     6          0.00000   0.00000
   3     3     6          0.00000   0.00006
   1     4     6          0.00000   0.00000
   2     4     6         -0.00001   0.00000
   3     4     6          0.00000   0.00002
   1     5     1         -0.00007   0.00000
   2     5     1          0.00004   0.00000
   3     5     1          0.00000  -0.00003
   1     6     1          0.00001   0.00002
   2     6     1         -0.00002  -0.00001
   3     6     1         -0.00004   0.00001
   1     7     1          0.00001  -0.00002
   2     7     1         -0.00002   0.00001
   3     7     1          0.00004   0.00001
   1     8     1         -0.00006   0.00000
   2     8     1         -0.00004   0.00000
   3     8     1          0.00000   0.00007
   1     9     1         -0.00009  -0.00008
   2     9     1          0.00005   0.00011
   3     9     1          0.00003  -0.00010
   1    10     1         -0.00009   0.00008
   2    10     1          0.00005  -0.00011
   3    10     1         -0.00003  -0.00010
   1    11     8         -0.00002   0.00001
   2    11     8          0.00000   0.00000
   3    11     8          0.00000   0.00000
   1    12     8         -0.00002  -0.00001
   2    12     8          0.00000   0.00000
   3    12     8          0.00000   0.00000
   1    13     8          0.00004  -0.00006
   2    13     8          0.00000   0.00000
   3    13     8          0.00001  -0.00007
   1    14     8          0.00004  -0.00006
   2    14     8          0.00000   0.00000
   3    14     8         -0.00001   0.00007
   1    15     8         -0.05247   0.05244
   2    15     8         -0.00030   0.00030
   3    15     8          0.00000   0.00000
   1    16    45         -0.00001   0.00004
   2    16    45          0.00000   0.00000
   3    16    45          0.00000   0.00000
   1    17    45         -0.00001  -0.00004
   2    17    45          0.00000   0.00000
   3    17    45          0.00000   0.00000
   1    18     8         -0.00002   0.00001
   2    18     8          0.00000   0.00000
   3    18     8          0.00000   0.00000
   1    19     8          0.00004   0.00006
   2    19     8          0.00000   0.00000
   3    19     8         -0.00001  -0.00007
   1    20     6         -0.00004   0.00000
   2    20     6          0.00000   0.00000
   3    20     6          0.00000  -0.00006
   1    21     8         -0.00002  -0.00001
   2    21     8          0.00000   0.00000
   3    21     8          0.00000   0.00000
   1    22     8          0.00004   0.00006
   2    22     8          0.00000   0.00000
   3    22     8          0.00001   0.00007
   1    23     8         -0.05247  -0.05244
   2    23     8         -0.00030  -0.00030
   3    23     8          0.00000   0.00000
   1    24     6          0.00002   0.00000
   2    24     6          0.00000   0.00000
   3    24     6          0.00000   0.00000
   1    25     6          0.00000   0.00000
   2    25     6         -0.00001   0.00000
   3    25     6          0.00000  -0.00002
   1    26     6          0.00000   0.00000
   2    26     6          0.00000   0.00000
   3    26     6          0.00000   0.00000
   1    27     1         -0.00007   0.00000
   2    27     1          0.00004   0.00000
   3    27     1          0.00000   0.00003
   1    28     1          0.00001  -0.00002
   2    28     1         -0.00002   0.00001
   3    28     1         -0.00004  -0.00001
   1    29     1          0.00001   0.00002
   2    29     1         -0.00002  -0.00001
   3    29     1          0.00004  -0.00001
   1    30     1         -0.00006   0.00000
   2    30     1         -0.00004   0.00000
   3    30     1          0.00000  -0.00007
   1    31     1         -0.00009   0.00008
   2    31     1          0.00005  -0.00011
   3    31     1          0.00003   0.00010
   1    32     1         -0.00009  -0.00008
   2    32     1          0.00005   0.00011
   3    32     1         -0.00003   0.00010
   1    33     1          0.41667   0.41660
   2    33     1          0.00241   0.00241
   3    33     1         -0.27387  -0.27398
   1    34     1          0.41667   0.41660
   2    34     1          0.00241   0.00241
   3    34     1          0.27387   0.27398
   1    35     1          0.41667  -0.41660
   2    35     1          0.00241  -0.00241
   3    35     1         -0.27387   0.27398
   1    36     1          0.41667  -0.41660
   2    36     1          0.00241  -0.00241
   3    36     1          0.27387  -0.27398
 Harmonic frequencies (cm**-1), IR intensities (KM/Mole), Raman scattering
 activities (A**4/AMU), depolarization ratios for plane and unpolarized
 incident light, reduced masses (AMU), force constants (mDyne/A),
 and normal coordinates:
                     1                      2                      3
                    BG                     BU                     AU
 Frequencies --  -352.6155              -344.6774                31.4215
 Red. masses --     1.1538                 1.1503                 1.0093
 Frc consts  --     0.0845                 0.0805                 0.0006
 IR Inten    --     0.0000               661.3749                 0.0020
  Atom  AN      X      Y      Z        X      Y      Z        X      Y      Z
     1   6     0.00   0.00   0.00     0.00   0.00   0.00     0.00   0.00   0.00
     2   6     0.00   0.00   0.00     0.00   0.00   0.00     0.00   0.00   0.00
     3   6     0.00   0.00   0.00     0.00   0.00   0.00     0.00   0.00   0.00
     4   6     0.00   0.00   0.00     0.00   0.00   0.00     0.00   0.00   0.00
     5   1     0.00   0.00   0.00     0.00   0.00   0.00     0.00   0.00   0.33
     6   1     0.00   0.00   0.00     0.00   0.00   0.00     0.27   0.00  -0.14
     7   1     0.00   0.00   0.00     0.00   0.00   0.00    -0.27   0.00  -0.14
     8   1     0.00   0.00   0.00     0.00   0.00   0.00     0.00   0.00  -0.28
     9   1     0.00   0.00   0.00     0.00   0.00   0.00     0.00   0.22   0.12
    10   1     0.00   0.00   0.00     0.00   0.00   0.00     0.00  -0.22   0.12
    11   8     0.00   0.00  -0.01     0.00   0.00   0.00     0.00   0.00   0.00
    12   8     0.00   0.00  -0.01     0.00   0.00   0.00     0.00   0.00   0.00
    13   8     0.00   0.00   0.00     0.00   0.00   0.00     0.00   0.00   0.00
    14   8     0.00   0.00   0.00     0.00   0.00   0.00     0.00   0.00   0.00
    15   8     0.00  -0.07   0.00     0.00   0.07   0.00     0.00   0.00   0.00
    16  45     0.00   0.00   0.00     0.00   0.00   0.00     0.00   0.00   0.00
    17  45     0.00   0.00   0.00     0.00   0.00   0.00     0.00   0.00   0.00
    18   8     0.00   0.00   0.01     0.00   0.00   0.00     0.00   0.00   0.00
    19   8     0.00   0.00   0.00     0.00   0.00   0.00     0.00   0.00   0.00
    20   6     0.00   0.00   0.00     0.00   0.00   0.00     0.00   0.00   0.00
    21   8     0.00   0.00   0.01     0.00   0.00   0.00     0.00   0.00   0.00
    22   8     0.00   0.00   0.00     0.00   0.00   0.00     0.00   0.00   0.00
    23   8     0.00   0.07   0.00     0.00   0.07   0.00     0.00   0.00   0.00
    24   6     0.00   0.00   0.00     0.00   0.00   0.00     0.00   0.00   0.00
    25   6     0.00   0.00   0.00     0.00   0.00   0.00     0.00   0.00   0.00
    26   6     0.00   0.00   0.00     0.00   0.00   0.00     0.00   0.00   0.00
    27   1     0.00   0.00   0.00     0.00   0.00   0.00     0.00   0.00   0.33
    28   1     0.00   0.00   0.00     0.00   0.00   0.00     0.27   0.00  -0.14
    29   1     0.00   0.00   0.00     0.00   0.00   0.00    -0.27   0.00  -0.14
    30   1     0.00   0.00   0.00     0.00   0.00   0.00     0.00   0.00  -0.28
    31   1     0.00   0.00   0.00     0.00   0.00   0.00     0.00   0.22   0.12
    32   1     0.00   0.00   0.00     0.00   0.00   0.00     0.00  -0.22   0.12
    33   1     0.00  -0.50   0.00     0.00  -0.50   0.00     0.00  -0.01   0.00
    34   1     0.00  -0.50   0.00     0.00  -0.50   0.00     0.00   0.01   0.00
    35   1     0.00   0.50   0.00     0.00  -0.50   0.00     0.00  -0.01   0.00
    36   1     0.00   0.50   0.00     0.00  -0.50   0.00     0.00   0.01   0.00
                     4                      5                      6
                    BG                     BG                     AU
 Frequencies --    32.8246                33.3968                34.5868
 Red. masses --     1.0121                 1.0127                 1.0215
 Frc consts  --     0.0006                 0.0007                 0.0007
 IR Inten    --     0.0000                 0.0000                 0.6157
  Atom  AN      X      Y      Z        X      Y      Z        X      Y      Z
     1   6     0.00   0.00   0.00     0.00   0.00   0.00     0.00   0.00   0.00
     2   6     0.00   0.00   0.00     0.00   0.00  -0.01     0.00   0.00   0.00
     3   6     0.00   0.00   0.00     0.00   0.00   0.00     0.00   0.00   0.00
     4   6     0.00   0.00  -0.01     0.00   0.00   0.01     0.00   0.00  -0.01
     5   1     0.00   0.00  -0.43     0.00   0.00   0.00     0.00   0.00  -0.28
     6   1    -0.35   0.00   0.18     0.01   0.00  -0.01    -0.22   0.00   0.12
     7   1     0.35   0.00   0.18    -0.01   0.00  -0.01     0.22   0.00   0.12
     8   1     0.00   0.00   0.00     0.00   0.00   0.43     0.00   0.00  -0.33
     9   1     0.00  -0.01  -0.01     0.00  -0.35  -0.18     0.00   0.27   0.14
    10   1     0.00   0.01  -0.01     0.00   0.35  -0.18     0.00  -0.27   0.14
    11   8     0.00   0.00   0.00     0.00   0.00   0.00     0.01   0.00   0.00
    12   8     0.00   0.00   0.00     0.00   0.00   0.00    -0.01   0.00   0.00
    13   8     0.00   0.00   0.00     0.00   0.00   0.00     0.00  -0.01   0.00
    14   8     0.00   0.00   0.00     0.00   0.00   0.00     0.00   0.01   0.00
    15   8    -0.01   0.00   0.00     0.00   0.00   0.00     0.00   0.00   0.00
    16  45     0.00   0.00   0.00     0.00   0.00   0.00     0.00   0.00   0.00
    17  45     0.00   0.00   0.00     0.00   0.00   0.00     0.00   0.00   0.00
    18   8     0.00   0.00   0.00     0.00   0.00   0.00    -0.01   0.00   0.00
    19   8     0.00   0.00   0.00     0.00   0.00   0.00     0.00   0.01   0.00
    20   6     0.00   0.00   0.00     0.00   0.00   0.00     0.00   0.00   0.00
    21   8     0.00   0.00   0.00     0.00   0.00   0.00     0.01   0.00   0.00
    22   8     0.00   0.00   0.00     0.00   0.00   0.00     0.00  -0.01   0.00
    23   8     0.01   0.00   0.00     0.00   0.00   0.00     0.00   0.00   0.00
    24   6     0.00   0.00   0.00     0.00   0.00   0.00     0.00   0.00   0.00
    25   6     0.00   0.00   0.01     0.00   0.00  -0.01     0.00   0.00  -0.01
    26   6     0.00   0.00   0.00     0.00   0.00   0.01     0.00   0.00   0.00
    27   1     0.00   0.00   0.43     0.00   0.00   0.00     0.00   0.00  -0.28
    28   1     0.35   0.00  -0.18    -0.01   0.00   0.01    -0.22   0.00   0.12
    29   1    -0.35   0.00  -0.18     0.01   0.00   0.01     0.22   0.00   0.12
    30   1     0.00   0.00   0.00     0.00   0.00  -0.43     0.00   0.00  -0.33
    31   1     0.00   0.01   0.01     0.00   0.35   0.18     0.00   0.27   0.14
    32   1     0.00  -0.01   0.01     0.00  -0.35   0.18     0.00  -0.27   0.14
    33   1     0.01   0.00   0.00     0.01   0.01   0.00     0.00  -0.01   0.00
    34   1     0.01   0.00   0.00     0.01   0.01   0.00     0.00   0.01   0.00
    35   1    -0.01   0.00   0.00    -0.01  -0.01   0.00     0.00  -0.01   0.00
    36   1    -0.01   0.00   0.00    -0.01  -0.01   0.00     0.00   0.01   0.00
                     7                      8                      9
                    BU                     AG                     BG
 Frequencies --    57.4204                59.6223                64.7530
 Red. masses --     3.3759                 2.8887                 3.3538
 Frc consts  --     0.0066                 0.0061                 0.0083
 IR Inten    --    13.3499                 0.0000                 0.0000
  Atom  AN      X      Y      Z        X      Y      Z        X      Y      Z
     1   6    -0.06   0.00   0.00     0.08   0.00   0.00     0.00   0.00   0.00
     2   6    -0.14   0.00   0.00     0.18   0.00   0.00     0.00   0.00   0.00
     3   6     0.00   0.00   0.00     0.00   0.08   0.00     0.00   0.00  -0.07
     4   6     0.00   0.00   0.00     0.00   0.18   0.00     0.00   0.00  -0.11
     5   1    -0.16  -0.06   0.00     0.21   0.08   0.00     0.00   0.00   0.00
     6   1    -0.16   0.02   0.00     0.21  -0.03   0.00     0.00   0.00   0.00
     7   1    -0.16   0.02   0.00     0.21  -0.03   0.00     0.00   0.00   0.00
     8   1     0.00   0.00   0.00    -0.08   0.20   0.00     0.00   0.00  -0.09
     9   1     0.00   0.00   0.00     0.03   0.21   0.00     0.02  -0.02  -0.13
    10   1     0.00   0.00   0.00     0.03   0.21   0.00    -0.02   0.02  -0.13
    11   8    -0.03   0.00   0.00     0.04   0.00   0.00    -0.01   0.00   0.00
    12   8    -0.03   0.00   0.00     0.04   0.00   0.00     0.01   0.00   0.00
    13   8    -0.01   0.00   0.00     0.00   0.04   0.00    -0.02   0.00  -0.06
    14   8    -0.01   0.00   0.00     0.00  -0.04   0.00    -0.02   0.00   0.06
    15   8     0.25   0.00   0.00     0.00   0.00   0.00     0.24   0.00   0.00
    16  45    -0.01   0.00   0.00     0.00   0.00   0.00    -0.01   0.00   0.00
    17  45    -0.01   0.00   0.00     0.00   0.00   0.00     0.01   0.00   0.00
    18   8    -0.03   0.00   0.00    -0.04   0.00   0.00    -0.01   0.00   0.00
    19   8    -0.01   0.00   0.00     0.00   0.04   0.00     0.02   0.00  -0.06
    20   6     0.00   0.00   0.00     0.00  -0.08   0.00     0.00   0.00   0.07
    21   8    -0.03   0.00   0.00    -0.04   0.00   0.00     0.01   0.00   0.00
    22   8    -0.01   0.00   0.00     0.00  -0.04   0.00     0.02   0.00   0.06
    23   8     0.25   0.00   0.00     0.00   0.00   0.00    -0.24   0.00   0.00
    24   6    -0.06   0.00   0.00    -0.08   0.00   0.00     0.00   0.00   0.00
    25   6     0.00   0.00   0.00     0.00  -0.18   0.00     0.00   0.00   0.11
    26   6    -0.14   0.00   0.00    -0.18   0.00   0.00     0.00   0.00   0.00
    27   1    -0.16  -0.06   0.00    -0.21  -0.08   0.00     0.00   0.00   0.00
    28   1    -0.16   0.02   0.00    -0.21   0.03   0.00     0.00   0.00   0.00
    29   1    -0.16   0.02   0.00    -0.21   0.03   0.00     0.00   0.00   0.00
    30   1     0.00   0.00   0.00     0.08  -0.20   0.00     0.00   0.00   0.09
    31   1     0.00   0.00   0.00    -0.03  -0.21   0.00    -0.02   0.02   0.13
    32   1     0.00   0.00   0.00    -0.03  -0.21   0.00     0.02  -0.02   0.13
    33   1     0.36   0.00   0.18     0.00  -0.26   0.00    -0.38   0.00  -0.21
    34   1     0.36   0.00  -0.18     0.00   0.26   0.00    -0.38   0.00   0.21
    35   1     0.36   0.00   0.18     0.00   0.26   0.00     0.38   0.00   0.21
    36   1     0.36   0.00  -0.18     0.00  -0.26   0.00     0.38   0.00  -0.21
                    10                     11                     12
                    AU                     BU                     BU
 Frequencies --    65.0016                65.0419                68.2500
 Red. masses --     1.3104                 3.5094                 3.5497
 Frc consts  --     0.0033                 0.0087                 0.0097
 IR Inten    --     0.0029                 1.2444                14.8026
  Atom  AN      X      Y      Z        X      Y      Z        X      Y      Z
     1   6     0.00   0.00   0.00     0.00  -0.03   0.00     0.07   0.00   0.00
     2   6     0.00   0.00   0.00     0.01  -0.03   0.00     0.26   0.01   0.00
     3   6     0.00   0.00   0.00     0.00   0.09   0.00    -0.04   0.00   0.00
     4   6     0.00   0.00   0.00    -0.01   0.29   0.00    -0.04  -0.01   0.00
     5   1     0.00   0.00  -0.02     0.01  -0.03   0.00     0.30   0.14   0.00
     6   1    -0.01   0.00   0.01     0.01  -0.03   0.00     0.31  -0.05   0.00
     7   1     0.01   0.00   0.01     0.01  -0.03   0.00     0.31  -0.05   0.00
     8   1     0.00   0.00  -0.03    -0.15   0.34   0.00    -0.04  -0.01   0.00
     9   1     0.00   0.02   0.01     0.06   0.35   0.00    -0.04  -0.01   0.00
    10   1     0.00  -0.02   0.01     0.06   0.35   0.00    -0.04  -0.01   0.00
    11   8    -0.04   0.00   0.00     0.00  -0.03   0.00     0.00   0.00   0.00
    12   8     0.04   0.00   0.00     0.00  -0.03   0.00     0.00   0.00   0.00
    13   8     0.00   0.06   0.00     0.00   0.02   0.00    -0.04   0.00   0.00
    14   8     0.00  -0.06   0.00     0.00   0.02   0.00    -0.04   0.00   0.00
    15   8     0.00   0.00   0.00     0.00  -0.06   0.00     0.11   0.00   0.00
    16  45     0.00   0.00   0.00     0.00  -0.03   0.00    -0.04   0.00   0.00
    17  45     0.00   0.00   0.00     0.00  -0.03   0.00    -0.04   0.00   0.00
    18   8     0.04   0.00   0.00     0.00  -0.03   0.00     0.00   0.00   0.00
    19   8     0.00  -0.06   0.00     0.00   0.02   0.00    -0.04   0.00   0.00
    20   6     0.00   0.00   0.00     0.00   0.09   0.00    -0.04   0.00   0.00
    21   8    -0.04   0.00   0.00     0.00  -0.03   0.00     0.00   0.00   0.00
    22   8     0.00   0.06   0.00     0.00   0.02   0.00    -0.04   0.00   0.00
    23   8     0.00   0.00   0.00     0.00  -0.06   0.00     0.11   0.00   0.00
    24   6     0.00   0.00   0.00     0.00  -0.03   0.00     0.07   0.00   0.00
    25   6     0.00   0.00   0.00    -0.01   0.29   0.00    -0.04  -0.01   0.00
    26   6     0.00   0.00   0.00     0.01  -0.03   0.00     0.26   0.01   0.00
    27   1     0.00   0.00  -0.02     0.01  -0.03   0.00     0.30   0.14   0.00
    28   1    -0.01   0.00   0.01     0.01  -0.03   0.00     0.31  -0.05   0.00
    29   1     0.01   0.00   0.01     0.01  -0.03   0.00     0.31  -0.05   0.00
    30   1     0.00   0.00  -0.03    -0.15   0.34   0.00    -0.04  -0.01   0.00
    31   1     0.00   0.02   0.01     0.06   0.35   0.00    -0.04  -0.01   0.00
    32   1     0.00  -0.02   0.01     0.06   0.35   0.00    -0.04  -0.01   0.00
    33   1     0.00   0.49   0.00     0.00  -0.06   0.00     0.19   0.00   0.11
    34   1     0.00  -0.49   0.00     0.00  -0.06   0.00     0.19   0.00  -0.11
    35   1     0.00   0.49   0.00     0.00  -0.06   0.00     0.19   0.00   0.11
    36   1     0.00  -0.49   0.00     0.00  -0.06   0.00     0.19   0.00  -0.11
                    13                     14                     15
                    AU                     AG                     BU
 Frequencies --    69.3121                73.3329                97.4199
 Red. masses --     3.5292                 1.0876                 5.7036
 Frc consts  --     0.0100                 0.0034                 0.0319
 IR Inten    --     0.0057                 0.0000                 9.0786
  Atom  AN      X      Y      Z        X      Y      Z        X      Y      Z
     1   6     0.00   0.00   0.00    -0.01   0.00   0.00     0.00  -0.04   0.00
     2   6     0.00   0.00  -0.01    -0.04   0.00   0.00     0.00  -0.04   0.00
     3   6     0.00   0.00   0.00     0.00  -0.01   0.00     0.00  -0.01   0.00
     4   6     0.00   0.00   0.00     0.00  -0.05   0.00     0.00   0.04   0.00
     5   1     0.00   0.00   0.06    -0.04  -0.02   0.00     0.00  -0.04   0.00
     6   1     0.05   0.00  -0.03    -0.04   0.01   0.00     0.00  -0.04   0.00
     7   1    -0.05   0.00  -0.03    -0.04   0.01   0.00     0.00  -0.04   0.00
     8   1     0.00   0.00   0.05     0.03  -0.05   0.00    -0.04   0.06   0.00
     9   1     0.00  -0.04  -0.03    -0.01  -0.06   0.00     0.02   0.06   0.00
    10   1     0.00   0.04  -0.03    -0.01  -0.06   0.00     0.02   0.06   0.00
    11   8     0.16   0.00   0.00     0.00   0.00   0.00     0.00  -0.04   0.00
    12   8    -0.16   0.00   0.00     0.00   0.00   0.00     0.00  -0.04   0.00
    13   8     0.00  -0.13   0.00     0.00   0.00   0.00     0.00  -0.03   0.00
    14   8     0.00   0.13   0.00     0.00   0.00   0.00     0.00  -0.03   0.00
    15   8     0.00   0.00   0.00     0.00   0.00   0.00     0.00   0.37   0.00
    16  45     0.00   0.00   0.00     0.00   0.00   0.00     0.00  -0.04   0.00
    17  45     0.00   0.00   0.00     0.00   0.00   0.00     0.00  -0.04   0.00
    18   8    -0.16   0.00   0.00     0.00   0.00   0.00     0.00  -0.04   0.00
    19   8     0.00   0.13   0.00     0.00   0.00   0.00     0.00  -0.03   0.00
    20   6     0.00   0.00   0.00     0.00   0.01   0.00     0.00  -0.01   0.00
    21   8     0.16   0.00   0.00     0.00   0.00   0.00     0.00  -0.04   0.00
    22   8     0.00  -0.13   0.00     0.00   0.00   0.00     0.00  -0.03   0.00
    23   8     0.00   0.00   0.00     0.00   0.00   0.00     0.00   0.37   0.00
    24   6     0.00   0.00   0.00     0.01   0.00   0.00     0.00  -0.04   0.00
    25   6     0.00   0.00   0.00     0.00   0.05   0.00     0.00   0.04   0.00
    26   6     0.00   0.00  -0.01     0.04   0.00   0.00     0.00  -0.04   0.00
    27   1     0.00   0.00   0.06     0.04   0.02   0.00     0.00  -0.04   0.00
    28   1     0.05   0.00  -0.03     0.04  -0.01   0.00     0.00  -0.04   0.00
    29   1    -0.05   0.00  -0.03     0.04  -0.01   0.00     0.00  -0.04   0.00
    30   1     0.00   0.00   0.05    -0.03   0.05   0.00    -0.04   0.06   0.00
    31   1     0.00  -0.04  -0.03     0.01   0.06   0.00     0.02   0.06   0.00
    32   1     0.00   0.04  -0.03     0.01   0.06   0.00     0.02   0.06   0.00
    33   1     0.00   0.45   0.00     0.00  -0.49   0.00     0.00   0.41   0.00
    34   1     0.00  -0.45   0.00     0.00   0.49   0.00     0.00   0.41   0.00
    35   1     0.00   0.45   0.00     0.00   0.49   0.00     0.00   0.41   0.00
    36   1     0.00  -0.45   0.00     0.00  -0.49   0.00     0.00   0.41   0.00
                    16                     17                     18
                    BG                     AG                     AU
 Frequencies --   106.9370               122.0774               127.2581
 Red. masses --     5.4131                 4.4770                 4.7269
 Frc consts  --     0.0365                 0.0393                 0.0451
 IR Inten    --     0.0000                 0.0000                 0.0002
  Atom  AN      X      Y      Z        X      Y      Z        X      Y      Z
     1   6     0.00   0.00  -0.09     0.07   0.00   0.00     0.00   0.00   0.11
     2   6     0.00   0.00  -0.16    -0.16  -0.01   0.00     0.00   0.00   0.20
     3   6     0.00   0.00   0.00     0.00  -0.06   0.00     0.00   0.00  -0.12
     4   6     0.00   0.00   0.00    -0.01   0.15   0.00     0.00   0.00  -0.21
     5   1     0.00   0.00  -0.17    -0.21  -0.18   0.00     0.00   0.00   0.21
     6   1     0.01   0.05  -0.18    -0.23   0.07   0.00    -0.02  -0.06   0.24
     7   1    -0.01  -0.05  -0.18    -0.23   0.07   0.00     0.02   0.06   0.24
     8   1     0.00   0.00   0.00    -0.18   0.21   0.00     0.00   0.00  -0.21
     9   1     0.00   0.00   0.00     0.07   0.22   0.00     0.07  -0.02  -0.25
    10   1     0.00   0.00   0.00     0.07   0.22   0.00    -0.07   0.02  -0.25
    11   8     0.00  -0.03  -0.08     0.14   0.00   0.00     0.00   0.03   0.09
    12   8     0.00   0.03  -0.08     0.14   0.00   0.00     0.00  -0.03   0.09
    13   8     0.00  -0.01   0.00     0.00  -0.13   0.00    -0.04   0.00  -0.10
    14   8     0.00  -0.01   0.00     0.00   0.13   0.00     0.04   0.00  -0.10
    15   8     0.00   0.33   0.00     0.00   0.00   0.00     0.00   0.00   0.01
    16  45     0.00  -0.01   0.00     0.00   0.00   0.00     0.00   0.00   0.00
    17  45     0.00   0.01   0.00     0.00   0.00   0.00     0.00   0.00   0.00
    18   8     0.00  -0.03   0.08    -0.14   0.00   0.00     0.00  -0.03   0.09
    19   8     0.00   0.01   0.00     0.00  -0.13   0.00     0.04   0.00  -0.10
    20   6     0.00   0.00   0.00     0.00   0.06   0.00     0.00   0.00  -0.12
    21   8     0.00   0.03   0.08    -0.14   0.00   0.00     0.00   0.03   0.09
    22   8     0.00   0.01   0.00     0.00   0.13   0.00    -0.04   0.00  -0.10
    23   8     0.00  -0.33   0.00     0.00   0.00   0.00     0.00   0.00   0.01
    24   6     0.00   0.00   0.09    -0.07   0.00   0.00     0.00   0.00   0.11
    25   6     0.00   0.00   0.00     0.01  -0.15   0.00     0.00   0.00  -0.21
    26   6     0.00   0.00   0.16     0.16   0.01   0.00     0.00   0.00   0.20
    27   1     0.00   0.00   0.17     0.21   0.18   0.00     0.00   0.00   0.21
    28   1    -0.01  -0.05   0.18     0.23  -0.07   0.00    -0.02  -0.06   0.24
    29   1     0.01   0.05   0.18     0.23  -0.07   0.00     0.02   0.06   0.24
    30   1     0.00   0.00   0.00     0.18  -0.21   0.00     0.00   0.00  -0.21
    31   1     0.00   0.00   0.00    -0.07  -0.22   0.00     0.07  -0.02  -0.25
    32   1     0.00   0.00   0.00    -0.07  -0.22   0.00    -0.07   0.02  -0.25
    33   1     0.00  -0.35   0.00     0.00  -0.02   0.00     0.00   0.01   0.01
    34   1     0.00  -0.35   0.00     0.00   0.02   0.00     0.00  -0.01   0.01
    35   1     0.00   0.35   0.00     0.00   0.02   0.00     0.00   0.01   0.01
    36   1     0.00   0.35   0.00     0.00  -0.02   0.00     0.00  -0.01   0.01
                    19                     20                     21
                    BG                     BG                     AU
 Frequencies --   157.4991               159.1923               166.8944
 Red. masses --    15.2073                16.3231                 4.5077
 Frc consts  --     0.2223                 0.2437                 0.0740
 IR Inten    --     0.0000                 0.0000                 3.7715
  Atom  AN      X      Y      Z        X      Y      Z        X      Y      Z
     1   6     0.00   0.00   0.01     0.00   0.00  -0.18     0.00   0.00   0.06
     2   6     0.00   0.00  -0.01     0.00   0.00  -0.10     0.00   0.00   0.19
     3   6     0.00   0.00  -0.18     0.00   0.00  -0.01     0.00   0.00   0.05
     4   6     0.00   0.00  -0.11     0.00   0.00   0.01     0.00   0.00   0.18
     5   1     0.00   0.00   0.02     0.00   0.00  -0.10     0.00   0.00   0.21
     6   1     0.01   0.01  -0.01    -0.01  -0.04  -0.07    -0.02  -0.10   0.25
     7   1    -0.01  -0.01  -0.01     0.01   0.04  -0.07     0.02   0.10   0.25
     8   1     0.00   0.00  -0.12     0.00   0.00  -0.01     0.00   0.00   0.19
     9   1    -0.03   0.01  -0.09    -0.01   0.01   0.02    -0.09   0.02   0.23
    10   1     0.03  -0.01  -0.09     0.01  -0.01   0.02     0.09  -0.02   0.23
    11   8     0.31   0.00   0.01     0.01   0.09  -0.23     0.00   0.05   0.03
    12   8    -0.31   0.00   0.01    -0.01  -0.09  -0.23     0.00  -0.05   0.03
    13   8     0.08  -0.01  -0.22     0.00   0.32  -0.01     0.04   0.00   0.03
    14   8     0.08  -0.01   0.22     0.00   0.32   0.01    -0.04   0.00   0.03
    15   8    -0.06   0.00   0.00     0.00  -0.10   0.00     0.00   0.00  -0.14
    16  45     0.14   0.00   0.00     0.00   0.15   0.00     0.00   0.00  -0.06
    17  45    -0.14   0.00   0.00     0.00  -0.15   0.00     0.00   0.00  -0.06
    18   8     0.31   0.00  -0.01     0.01   0.09   0.23     0.00  -0.05   0.03
    19   8    -0.08   0.01  -0.22     0.00  -0.32  -0.01    -0.04   0.00   0.03
    20   6     0.00   0.00   0.18     0.00   0.00   0.01     0.00   0.00   0.05
    21   8    -0.31   0.00  -0.01    -0.01  -0.09   0.23     0.00   0.05   0.03
    22   8    -0.08   0.01   0.22     0.00  -0.32   0.01     0.04   0.00   0.03
    23   8     0.06   0.00   0.00     0.00   0.10   0.00     0.00   0.00  -0.14
    24   6     0.00   0.00  -0.01     0.00   0.00   0.18     0.00   0.00   0.06
    25   6     0.00   0.00   0.11     0.00   0.00  -0.01     0.00   0.00   0.18
    26   6     0.00   0.00   0.01     0.00   0.00   0.10     0.00   0.00   0.19
    27   1     0.00   0.00  -0.02     0.00   0.00   0.10     0.00   0.00   0.21
    28   1    -0.01  -0.01   0.01     0.01   0.04   0.07    -0.02  -0.10   0.25
    29   1     0.01   0.01   0.01    -0.01  -0.04   0.07     0.02   0.10   0.25
    30   1     0.00   0.00   0.12     0.00   0.00   0.01     0.00   0.00   0.19
    31   1     0.03  -0.01   0.09     0.01  -0.01  -0.02    -0.09   0.02   0.23
    32   1    -0.03   0.01   0.09    -0.01   0.01  -0.02     0.09  -0.02   0.23
    33   1     0.16   0.00   0.15     0.00   0.20   0.00     0.00   0.00  -0.15
    34   1     0.16   0.00  -0.15     0.00   0.20   0.00     0.00   0.00  -0.15
    35   1    -0.16   0.00  -0.15     0.00  -0.20   0.00     0.00   0.00  -0.15
    36   1    -0.16   0.00   0.15     0.00  -0.20   0.00     0.00   0.00  -0.15
                    22                     23                     24
                    AU                     AG                     BG
 Frequencies --   202.2580               211.8568               231.5663
 Red. masses --    12.0023                 6.2953                 5.1052
 Frc consts  --     0.2893                 0.1665                 0.1613
 IR Inten    --     0.0000                 0.0000                 0.0000
  Atom  AN      X      Y      Z        X      Y      Z        X      Y      Z
     1   6     0.00   0.00   0.01     0.14   0.00   0.00     0.00   0.00   0.00
     2   6     0.00   0.00   0.00    -0.09  -0.01   0.00     0.00   0.00   0.00
     3   6     0.00   0.00  -0.01     0.00   0.14   0.00     0.00   0.00  -0.11
     4   6     0.00   0.00   0.00     0.01  -0.09   0.00     0.00   0.00   0.19
     5   1     0.00   0.00   0.01    -0.15  -0.21   0.00     0.00   0.00   0.00
     6   1     0.00   0.01  -0.01    -0.16   0.08   0.00     0.00   0.00   0.00
     7   1     0.00  -0.01  -0.01    -0.16   0.08   0.00     0.00   0.00   0.00
     8   1     0.00   0.00  -0.01     0.21  -0.15   0.00     0.00   0.00   0.24
     9   1    -0.01   0.00   0.01    -0.08  -0.17   0.00    -0.22   0.03   0.31
    10   1     0.01   0.00   0.01    -0.08  -0.17   0.00     0.22  -0.03   0.31
    11   8     0.30   0.00   0.01     0.18   0.00   0.00    -0.14  -0.01   0.00
    12   8    -0.30   0.00   0.01     0.18   0.00   0.00     0.14   0.01   0.00
    13   8     0.00   0.31  -0.01     0.00   0.19   0.00     0.09   0.01  -0.15
    14   8     0.00  -0.31  -0.01     0.00  -0.19   0.00     0.09   0.01   0.15
    15   8     0.00   0.00   0.00     0.00   0.00   0.00     0.00   0.00   0.00
    16  45     0.00   0.00   0.00     0.00   0.00   0.00     0.01  -0.01   0.00
    17  45     0.00   0.00   0.00     0.00   0.00   0.00    -0.01   0.01   0.00
    18   8    -0.30   0.00   0.01    -0.18   0.00   0.00    -0.14  -0.01   0.00
    19   8     0.00  -0.31  -0.01     0.00   0.19   0.00    -0.09  -0.01  -0.15
    20   6     0.00   0.00  -0.01     0.00  -0.14   0.00     0.00   0.00   0.11
    21   8     0.30   0.00   0.01    -0.18   0.00   0.00     0.14   0.01   0.00
    22   8     0.00   0.31  -0.01     0.00  -0.19   0.00    -0.09  -0.01   0.15
    23   8     0.00   0.00   0.00     0.00   0.00   0.00     0.00   0.00   0.00
    24   6     0.00   0.00   0.01    -0.14   0.00   0.00     0.00   0.00   0.00
    25   6     0.00   0.00   0.00    -0.01   0.09   0.00     0.00   0.00  -0.19
    26   6     0.00   0.00   0.00     0.09   0.01   0.00     0.00   0.00   0.00
    27   1     0.00   0.00   0.01     0.15   0.21   0.00     0.00   0.00   0.00
    28   1     0.00   0.01  -0.01     0.16  -0.08   0.00     0.00   0.00   0.00
    29   1     0.00  -0.01  -0.01     0.16  -0.08   0.00     0.00   0.00   0.00
    30   1     0.00   0.00  -0.01    -0.21   0.15   0.00     0.00   0.00  -0.24
    31   1    -0.01   0.00   0.01     0.08   0.17   0.00     0.22  -0.03  -0.31
    32   1     0.01   0.00   0.01     0.08   0.17   0.00    -0.22   0.03  -0.31
    33   1     0.00  -0.26   0.00     0.00   0.14   0.00    -0.01   0.00  -0.03
    34   1     0.00   0.26   0.00     0.00  -0.14   0.00    -0.01   0.00   0.03
    35   1     0.00  -0.26   0.00     0.00  -0.14   0.00     0.01   0.00   0.03
    36   1     0.00   0.26   0.00     0.00   0.14   0.00     0.01   0.00  -0.03
                    25                     26                     27
                    BG                     BU                     BU
 Frequencies --   233.1865               238.4491               239.7838
 Red. masses --     5.2497                 6.8690                 6.9112
 Frc consts  --     0.1682                 0.2301                 0.2341
 IR Inten    --     0.0000                 0.0684                 0.6038
  Atom  AN      X      Y      Z        X      Y      Z        X      Y      Z
     1   6     0.00   0.00  -0.11     0.20   0.00   0.00     0.00  -0.10   0.00
     2   6     0.00   0.00   0.19    -0.11  -0.01   0.00     0.00  -0.12   0.00
     3   6     0.00   0.00   0.00    -0.10   0.00   0.00     0.00   0.20   0.00
     4   6     0.00   0.00   0.00    -0.11   0.00   0.00     0.02  -0.11   0.00
     5   1     0.00   0.00   0.24    -0.20  -0.30   0.00     0.00  -0.12   0.00
     6   1    -0.03  -0.22   0.30    -0.22   0.11   0.00     0.00  -0.12   0.00
     7   1     0.03   0.22   0.30    -0.22   0.11   0.00     0.00  -0.12   0.00
     8   1     0.00   0.00   0.00    -0.12   0.00   0.00     0.30  -0.20   0.00
     9   1     0.00   0.00  -0.01    -0.11   0.00   0.00    -0.11  -0.22   0.00
    10   1     0.00   0.00  -0.01    -0.11   0.00   0.00    -0.11  -0.22   0.00
    11   8    -0.01   0.09  -0.16     0.25   0.00   0.00     0.00  -0.09   0.00
    12   8     0.01  -0.09  -0.16     0.25   0.00   0.00     0.00  -0.09   0.00
    13   8     0.01  -0.14   0.00    -0.09   0.00   0.00     0.00   0.24   0.00
    14   8     0.01  -0.14   0.00    -0.09   0.00   0.00     0.00   0.24   0.00
    15   8     0.00   0.02   0.00    -0.01   0.00   0.00     0.00   0.00   0.00
    16  45     0.01   0.01   0.00    -0.03   0.00   0.00     0.00  -0.02   0.00
    17  45    -0.01  -0.01   0.00    -0.03   0.00   0.00     0.00  -0.02   0.00
    18   8    -0.01   0.09   0.16     0.25   0.00   0.00     0.00  -0.09   0.00
    19   8    -0.01   0.14   0.00    -0.09   0.00   0.00     0.00   0.24   0.00
    20   6     0.00   0.00   0.00    -0.10   0.00   0.00     0.00   0.20   0.00
    21   8     0.01  -0.09   0.16     0.25   0.00   0.00     0.00  -0.09   0.00
    22   8    -0.01   0.14   0.00    -0.09   0.00   0.00     0.00   0.24   0.00
    23   8     0.00  -0.02   0.00    -0.01   0.00   0.00     0.00   0.00   0.00
    24   6     0.00   0.00   0.11     0.20   0.00   0.00     0.00  -0.10   0.00
    25   6     0.00   0.00   0.00    -0.11   0.00   0.00     0.02  -0.11   0.00
    26   6     0.00   0.00  -0.19    -0.11  -0.01   0.00     0.00  -0.12   0.00
    27   1     0.00   0.00  -0.24    -0.20  -0.30   0.00     0.00  -0.12   0.00
    28   1     0.03   0.22  -0.30    -0.22   0.11   0.00     0.00  -0.12   0.00
    29   1    -0.03  -0.22  -0.30    -0.22   0.11   0.00     0.00  -0.12   0.00
    30   1     0.00   0.00   0.00    -0.12   0.00   0.00     0.30  -0.20   0.00
    31   1     0.00   0.00   0.01    -0.11   0.00   0.00    -0.11  -0.22   0.00
    32   1     0.00   0.00   0.01    -0.11   0.00   0.00    -0.11  -0.22   0.00
    33   1     0.01  -0.01   0.01     0.02   0.00   0.04     0.00  -0.02   0.00
    34   1     0.01  -0.01  -0.01     0.02   0.00  -0.04     0.00  -0.02   0.00
    35   1    -0.01   0.01  -0.01     0.02   0.00   0.04     0.00  -0.02   0.00
    36   1    -0.01   0.01   0.01     0.02   0.00  -0.04     0.00  -0.02   0.00
                    28                     29                     30
                    AG                     AU                     BG
 Frequencies --   243.0871               251.2174               273.9560
 Red. masses --     7.3703                 4.9735                 6.5171
 Frc consts  --     0.2566                 0.1849                 0.2882
 IR Inten    --     0.0000                 0.5264                 0.0000
  Atom  AN      X      Y      Z        X      Y      Z        X      Y      Z
     1   6     0.00   0.04   0.00     0.00   0.00  -0.04     0.00   0.00   0.01
     2   6     0.00   0.04   0.00     0.00   0.00   0.09     0.00   0.00  -0.01
     3   6     0.04   0.00   0.00     0.00   0.00  -0.04     0.00   0.00   0.04
     4   6     0.04   0.00   0.00     0.00   0.00   0.10     0.00   0.00  -0.17
     5   1     0.00   0.04   0.00     0.00   0.00   0.12     0.00   0.00  -0.02
     6   1     0.00   0.04   0.00    -0.01  -0.11   0.14     0.00   0.01  -0.02
     7   1     0.00   0.04   0.00     0.01   0.11   0.14     0.00  -0.01  -0.02
     8   1     0.04   0.00   0.00     0.00   0.00   0.13     0.00   0.00  -0.22
     9   1     0.04   0.00   0.00    -0.12   0.01   0.16     0.18  -0.02  -0.26
    10   1     0.04   0.00   0.00     0.12  -0.01   0.16    -0.18   0.02  -0.26
    11   8     0.00   0.02   0.01     0.00   0.04  -0.07    -0.18  -0.01   0.01
    12   8     0.00   0.02  -0.01     0.00  -0.04  -0.07     0.18   0.01   0.01
    13   8     0.01   0.00   0.01     0.04   0.00  -0.07     0.01   0.01   0.03
    14   8    -0.01   0.00   0.01    -0.04   0.00  -0.07     0.01   0.01  -0.03
    15   8     0.00   0.00   0.39     0.00   0.00   0.29     0.03   0.00   0.00
    16  45     0.00   0.00   0.09     0.00   0.00  -0.03     0.12   0.00   0.00
    17  45     0.00   0.00  -0.09     0.00   0.00  -0.03    -0.12   0.00   0.00
    18   8     0.00  -0.02   0.01     0.00  -0.04  -0.07    -0.18  -0.01  -0.01
    19   8     0.01   0.00  -0.01    -0.04   0.00  -0.07    -0.01  -0.01   0.03
    20   6    -0.04   0.00   0.00     0.00   0.00  -0.04     0.00   0.00  -0.04
    21   8     0.00  -0.02  -0.01     0.00   0.04  -0.07     0.18   0.01  -0.01
    22   8    -0.01   0.00  -0.01     0.04   0.00  -0.07    -0.01  -0.01  -0.03
    23   8     0.00   0.00  -0.39     0.00   0.00   0.29    -0.03   0.00   0.00
    24   6     0.00  -0.04   0.00     0.00   0.00  -0.04     0.00   0.00  -0.01
    25   6    -0.04   0.00   0.00     0.00   0.00   0.10     0.00   0.00   0.17
    26   6     0.00  -0.04   0.00     0.00   0.00   0.09     0.00   0.00   0.01
    27   1     0.00  -0.04   0.00     0.00   0.00   0.12     0.00   0.00   0.02
    28   1     0.00  -0.04   0.00    -0.01  -0.11   0.14     0.00  -0.01   0.02
    29   1     0.00  -0.04   0.00     0.01   0.11   0.14     0.00   0.01   0.02
    30   1    -0.04   0.00   0.00     0.00   0.00   0.13     0.00   0.00   0.22
    31   1    -0.04   0.00   0.00    -0.12   0.01   0.16    -0.18   0.02   0.26
    32   1    -0.04   0.00   0.00     0.12  -0.01   0.16     0.18  -0.02   0.26
    33   1     0.00   0.00  -0.40     0.01   0.00   0.31     0.12   0.00   0.23
    34   1     0.00   0.00  -0.40    -0.01   0.00   0.31     0.12   0.00  -0.23
    35   1     0.00   0.00   0.40     0.01   0.00   0.31    -0.12   0.00  -0.23
    36   1     0.00   0.00   0.40    -0.01   0.00   0.31    -0.12   0.00   0.23
                    31                     32                     33
                    AU                     BG                     AG
 Frequencies --   280.2117               282.9217               306.4789
 Red. masses --     4.2849                 9.2906                 6.7612
 Frc consts  --     0.1982                 0.4382                 0.3742
 IR Inten    --     0.0437                 0.0000                 0.0000
  Atom  AN      X      Y      Z        X      Y      Z        X      Y      Z
     1   6     0.00   0.00  -0.10     0.00   0.00  -0.07     0.00  -0.18   0.00
     2   6     0.00   0.00   0.12     0.00   0.00   0.19     0.01  -0.21   0.00
     3   6     0.00   0.00   0.10     0.00   0.00   0.00     0.17   0.00   0.00
     4   6     0.00   0.00  -0.12     0.00   0.00  -0.01     0.21   0.01   0.00
     5   1     0.00   0.00   0.17     0.00   0.00   0.26     0.01  -0.21   0.00
     6   1    -0.02  -0.18   0.21    -0.02  -0.22   0.30     0.01  -0.22   0.00
     7   1     0.02   0.18   0.21     0.02   0.22   0.30     0.01  -0.22   0.00
     8   1     0.00   0.00  -0.17     0.00   0.00  -0.02     0.20   0.01   0.00
     9   1     0.18  -0.02  -0.22     0.01   0.00  -0.02     0.21   0.01   0.00
    10   1    -0.18   0.02  -0.22    -0.01   0.00  -0.02     0.21   0.01   0.00
    11   8     0.01   0.05  -0.13     0.01  -0.01  -0.05    -0.01  -0.14  -0.01
    12   8    -0.01  -0.05  -0.13    -0.01   0.01  -0.05    -0.01  -0.14   0.01
    13   8    -0.05   0.01   0.13    -0.01   0.21   0.01     0.14  -0.01   0.01
    14   8     0.05  -0.01   0.13    -0.01   0.21  -0.01    -0.14   0.01   0.01
    15   8     0.00   0.00   0.01     0.00   0.04   0.00     0.00   0.00   0.00
    16  45     0.00   0.00   0.00     0.00  -0.15   0.00     0.00   0.00   0.00
    17  45     0.00   0.00   0.00     0.00   0.15   0.00     0.00   0.00   0.00
    18   8    -0.01  -0.05  -0.13     0.01  -0.01   0.05     0.01   0.14  -0.01
    19   8     0.05  -0.01   0.13     0.01  -0.21   0.01     0.14  -0.01  -0.01
    20   6     0.00   0.00   0.10     0.00   0.00   0.00    -0.17   0.00   0.00
    21   8     0.01   0.05  -0.13    -0.01   0.01   0.05     0.01   0.14   0.01
    22   8    -0.05   0.01   0.13     0.01  -0.21  -0.01    -0.14   0.01  -0.01
    23   8     0.00   0.00   0.01     0.00  -0.04   0.00     0.00   0.00   0.00
    24   6     0.00   0.00  -0.10     0.00   0.00   0.07     0.00   0.18   0.00
    25   6     0.00   0.00  -0.12     0.00   0.00   0.01    -0.21  -0.01   0.00
    26   6     0.00   0.00   0.12     0.00   0.00  -0.19    -0.01   0.21   0.00
    27   1     0.00   0.00   0.17     0.00   0.00  -0.26    -0.01   0.21   0.00
    28   1    -0.02  -0.18   0.21     0.02   0.22  -0.30    -0.01   0.22   0.00
    29   1     0.02   0.18   0.21    -0.02  -0.22  -0.30    -0.01   0.22   0.00
    30   1     0.00   0.00  -0.17     0.00   0.00   0.02    -0.20  -0.01   0.00
    31   1     0.18  -0.02  -0.22    -0.01   0.00   0.02    -0.21  -0.01   0.00
    32   1    -0.18   0.02  -0.22     0.01   0.00   0.02    -0.21  -0.01   0.00
    33   1     0.00  -0.01   0.01     0.00   0.00   0.00     0.00   0.00   0.00
    34   1     0.00   0.01   0.01     0.00   0.00   0.00     0.00   0.00   0.00
    35   1     0.00  -0.01   0.01     0.00   0.00   0.00     0.00   0.00   0.00
    36   1     0.00   0.01   0.01     0.00   0.00   0.00     0.00   0.00   0.00
                    34                     35                     36
                    AG                     AU                     AG
 Frequencies --   312.3863               331.6646               354.0337
 Red. masses --     6.7444                 7.2639                20.8221
 Frc consts  --     0.3878                 0.4708                 1.5377
 IR Inten    --     0.0000                33.5242                 0.0000
  Atom  AN      X      Y      Z        X      Y      Z        X      Y      Z
     1   6     0.00   0.17   0.00     0.00   0.00  -0.12     0.00  -0.05   0.00
     2   6    -0.01   0.20   0.00     0.00   0.00   0.09     0.00  -0.07   0.00
     3   6     0.17   0.00   0.00     0.00   0.00  -0.12    -0.06   0.00   0.00
     4   6     0.21   0.01   0.00     0.00   0.00   0.08    -0.08   0.00   0.00
     5   1    -0.01   0.20   0.00     0.00   0.00   0.14     0.00  -0.07   0.00
     6   1    -0.01   0.20   0.00    -0.02  -0.18   0.18     0.00  -0.07   0.00
     7   1    -0.01   0.20   0.00     0.02   0.18   0.18     0.00  -0.07   0.00
     8   1     0.20   0.01   0.00     0.00   0.00   0.14    -0.08   0.00   0.00
     9   1     0.21   0.01   0.00    -0.17   0.02   0.17    -0.08   0.00   0.00
    10   1     0.21   0.01   0.00     0.17  -0.02   0.17    -0.08   0.00   0.00
    11   8     0.00   0.13   0.01     0.00   0.02  -0.13     0.00  -0.09   0.03
    12   8     0.00   0.13  -0.01     0.00  -0.02  -0.13     0.00  -0.09  -0.03
    13   8     0.13   0.00   0.01     0.02   0.00  -0.13    -0.10   0.00   0.03
    14   8    -0.13   0.00   0.01    -0.02   0.00  -0.13     0.10   0.00   0.03
    15   8     0.00   0.00  -0.11     0.00   0.00  -0.16     0.00   0.00  -0.32
    16  45     0.00   0.00   0.03     0.00   0.00   0.11     0.00   0.00   0.27
    17  45     0.00   0.00  -0.03     0.00   0.00   0.11     0.00   0.00  -0.27
    18   8     0.00  -0.13   0.01     0.00  -0.02  -0.13     0.00   0.09   0.03
    19   8     0.13   0.00  -0.01    -0.02   0.00  -0.13    -0.10   0.00  -0.03
    20   6    -0.17   0.00   0.00     0.00   0.00  -0.12     0.06   0.00   0.00
    21   8     0.00  -0.13  -0.01     0.00   0.02  -0.13     0.00   0.09  -0.03
    22   8    -0.13   0.00  -0.01     0.02   0.00  -0.13     0.10   0.00  -0.03
    23   8     0.00   0.00   0.11     0.00   0.00  -0.16     0.00   0.00   0.32
    24   6     0.00  -0.17   0.00     0.00   0.00  -0.12     0.00   0.05   0.00
    25   6    -0.21  -0.01   0.00     0.00   0.00   0.08     0.08   0.00   0.00
    26   6     0.01  -0.20   0.00     0.00   0.00   0.09     0.00   0.07   0.00
    27   1     0.01  -0.20   0.00     0.00   0.00   0.14     0.00   0.07   0.00
    28   1     0.01  -0.20   0.00    -0.02  -0.18   0.18     0.00   0.07   0.00
    29   1     0.01  -0.20   0.00     0.02   0.18   0.18     0.00   0.07   0.00
    30   1    -0.20  -0.01   0.00     0.00   0.00   0.14     0.08   0.00   0.00
    31   1    -0.21  -0.01   0.00    -0.17   0.02   0.17     0.08   0.00   0.00
    32   1    -0.21  -0.01   0.00     0.17  -0.02   0.17     0.08   0.00   0.00
    33   1     0.00   0.00   0.11     0.00   0.00  -0.17     0.01   0.00   0.34
    34   1     0.00   0.00   0.11     0.00   0.00  -0.17    -0.01   0.00   0.34
    35   1     0.00   0.00  -0.11     0.00   0.00  -0.17    -0.01   0.00  -0.34
    36   1     0.00   0.00  -0.11     0.00   0.00  -0.17     0.01   0.00  -0.34
                    37                     38                     39
                    BU                     BU                     BU
 Frequencies --   362.0255               370.1969               456.5075
 Red. masses --     5.8798                 9.3356                 1.3138
 Frc consts  --     0.4540                 0.7538                 0.1613
 IR Inten    --     9.0234                52.4047                95.7164
  Atom  AN      X      Y      Z        X      Y      Z        X      Y      Z
     1   6    -0.06   0.00   0.00     0.00  -0.21   0.00     0.02   0.00   0.00
     2   6     0.02   0.00   0.00     0.01  -0.28   0.00     0.00   0.00   0.00
     3   6    -0.16   0.00   0.00     0.01  -0.09   0.00     0.02   0.00   0.00
     4   6    -0.22  -0.01   0.00     0.00   0.03   0.00     0.03   0.00   0.00
     5   1     0.05   0.10   0.00     0.01  -0.28   0.00    -0.01  -0.02   0.00
     6   1     0.06  -0.05   0.00     0.01  -0.29   0.00    -0.01   0.01   0.00
     7   1     0.06  -0.05   0.00     0.01  -0.29   0.00    -0.01   0.01   0.00
     8   1    -0.21  -0.01   0.00    -0.14   0.07   0.00     0.03   0.00   0.00
     9   1    -0.22  -0.01   0.00     0.06   0.08   0.00     0.03   0.00   0.00
    10   1    -0.22  -0.01   0.00     0.06   0.08   0.00     0.03   0.00   0.00
    11   8    -0.04   0.00   0.00    -0.01  -0.15  -0.02     0.00   0.00   0.00
    12   8    -0.04   0.00   0.00    -0.01  -0.15   0.02     0.00   0.00   0.00
    13   8    -0.12   0.01  -0.02     0.01  -0.06   0.00     0.01   0.00   0.01
    14   8    -0.12   0.01   0.02     0.01  -0.06   0.00     0.01   0.00  -0.01
    15   8     0.06   0.00   0.00     0.00  -0.01   0.00     0.08   0.00   0.00
    16  45     0.10   0.00   0.00     0.00   0.14   0.00    -0.02   0.00   0.00
    17  45     0.10   0.00   0.00     0.00   0.14   0.00    -0.02   0.00   0.00
    18   8    -0.04   0.00   0.00    -0.01  -0.15   0.02     0.00   0.00   0.00
    19   8    -0.12   0.01   0.02     0.01  -0.06   0.00     0.01   0.00  -0.01
    20   6    -0.16   0.00   0.00     0.01  -0.09   0.00     0.02   0.00   0.00
    21   8    -0.04   0.00   0.00    -0.01  -0.15  -0.02     0.00   0.00   0.00
    22   8    -0.12   0.01  -0.02     0.01  -0.06   0.00     0.01   0.00   0.01
    23   8     0.06   0.00   0.00     0.00  -0.01   0.00     0.08   0.00   0.00
    24   6    -0.06   0.00   0.00     0.00  -0.21   0.00     0.02   0.00   0.00
    25   6    -0.22  -0.01   0.00     0.00   0.03   0.00     0.03   0.00   0.00
    26   6     0.02   0.00   0.00     0.01  -0.28   0.00     0.00   0.00   0.00
    27   1     0.05   0.10   0.00     0.01  -0.28   0.00    -0.01  -0.02   0.00
    28   1     0.06  -0.05   0.00     0.01  -0.29   0.00    -0.01   0.01   0.00
    29   1     0.06  -0.05   0.00     0.01  -0.29   0.00    -0.01   0.01   0.00
    30   1    -0.21  -0.01   0.00    -0.14   0.07   0.00     0.03   0.00   0.00
    31   1    -0.22  -0.01   0.00     0.06   0.08   0.00     0.03   0.00   0.00
    32   1    -0.22  -0.01   0.00     0.06   0.08   0.00     0.03   0.00   0.00
    33   1    -0.13   0.00  -0.29     0.00   0.05   0.00    -0.21   0.00  -0.45
    34   1    -0.13   0.00   0.29     0.00   0.05   0.00    -0.21   0.00   0.45
    35   1    -0.13   0.00  -0.29     0.00   0.05   0.00    -0.21   0.00  -0.45
    36   1    -0.13   0.00   0.29     0.00   0.05   0.00    -0.21   0.00   0.45
                    40                     41                     42
                    BG                     BG                     AU
 Frequencies --   460.9979               553.7052               555.0637
 Red. masses --     1.3003                 4.9720                 5.1948
 Frc consts  --     0.1628                 0.8981                 0.9430
 IR Inten    --     0.0000                 0.0000                 0.0065
  Atom  AN      X      Y      Z        X      Y      Z        X      Y      Z
     1   6     0.00   0.00   0.00     0.00   0.00   0.11     0.00   0.00   0.08
     2   6     0.00   0.00   0.00     0.00   0.00  -0.07     0.00   0.00  -0.04
     3   6     0.00   0.00   0.02     0.00   0.00   0.00     0.00   0.00  -0.09
     4   6     0.00   0.00  -0.01     0.00   0.00   0.00     0.00   0.00   0.05
     5   1     0.00   0.00   0.00     0.00   0.00  -0.21     0.00   0.00  -0.14
     6   1     0.00   0.00   0.00     0.02   0.34  -0.23     0.01   0.22  -0.15
     7   1     0.00   0.00   0.00    -0.02  -0.34  -0.23    -0.01  -0.22  -0.15
     8   1     0.00   0.00  -0.03     0.00   0.00   0.00     0.00   0.00   0.15
     9   1     0.04   0.00  -0.03     0.00   0.00   0.00    -0.24   0.01   0.16
    10   1    -0.04   0.00  -0.03     0.00   0.00   0.00     0.24  -0.01   0.16
    11   8    -0.01   0.00   0.00     0.00   0.23   0.00     0.00   0.17  -0.02
    12   8     0.01   0.00   0.00     0.00  -0.23   0.00     0.00  -0.17  -0.02
    13   8     0.02   0.00   0.01     0.00   0.00   0.00    -0.18   0.00   0.02
    14   8     0.02   0.00  -0.01     0.00   0.00   0.00     0.18   0.00   0.02
    15   8    -0.08   0.00   0.00     0.00   0.00   0.00     0.00   0.00   0.00
    16  45     0.01   0.00   0.00     0.00  -0.04   0.00     0.00   0.00   0.00
    17  45    -0.01   0.00   0.00     0.00   0.04   0.00     0.00   0.00   0.00
    18   8    -0.01   0.00   0.00     0.00   0.23   0.00     0.00  -0.17  -0.02
    19   8    -0.02   0.00   0.01     0.00   0.00   0.00     0.18   0.00   0.02
    20   6     0.00   0.00  -0.02     0.00   0.00   0.00     0.00   0.00  -0.09
    21   8     0.01   0.00   0.00     0.00  -0.23   0.00     0.00   0.17  -0.02
    22   8    -0.02   0.00  -0.01     0.00   0.00   0.00    -0.18   0.00   0.02
    23   8     0.08   0.00   0.00     0.00   0.00   0.00     0.00   0.00   0.00
    24   6     0.00   0.00   0.00     0.00   0.00  -0.11     0.00   0.00   0.08
    25   6     0.00   0.00   0.01     0.00   0.00   0.00     0.00   0.00   0.05
    26   6     0.00   0.00   0.00     0.00   0.00   0.07     0.00   0.00  -0.04
    27   1     0.00   0.00   0.00     0.00   0.00   0.21     0.00   0.00  -0.14
    28   1     0.00   0.00   0.00    -0.02  -0.34   0.23     0.01   0.22  -0.15
    29   1     0.00   0.00   0.00     0.02   0.34   0.23    -0.01  -0.22  -0.15
    30   1     0.00   0.00   0.03     0.00   0.00   0.00     0.00   0.00   0.15
    31   1    -0.04   0.00   0.03     0.00   0.00   0.00    -0.24   0.01   0.16
    32   1     0.04   0.00   0.03     0.00   0.00   0.00     0.24  -0.01   0.16
    33   1    -0.21   0.00  -0.45     0.00   0.00   0.00     0.00   0.00   0.00
    34   1    -0.21   0.00   0.45     0.00   0.00   0.00     0.00   0.00   0.00
    35   1     0.21   0.00   0.45     0.00   0.00   0.00     0.00   0.00   0.00
    36   1     0.21   0.00  -0.45     0.00   0.00   0.00     0.00   0.00   0.00
                    43                     44                     45
                    BG                     AG                     AU
 Frequencies --   556.1650               561.5194               562.0280
 Red. masses --     4.9035                 3.3577                 5.3463
 Frc consts  --     0.8936                 0.6238                 0.9950
 IR Inten    --     0.0000                 0.0000                 3.1294
  Atom  AN      X      Y      Z        X      Y      Z        X      Y      Z
     1   6     0.00   0.00   0.00    -0.19   0.00   0.00     0.00   0.00  -0.08
     2   6     0.00   0.00   0.00    -0.01   0.01   0.00     0.00   0.00   0.04
     3   6     0.00   0.00   0.11     0.00   0.21   0.00     0.00   0.00  -0.08
     4   6     0.00   0.00  -0.06     0.01   0.01   0.00     0.00   0.00   0.04
     5   1     0.00   0.00   0.00     0.10   0.32   0.00     0.00   0.00   0.15
     6   1     0.00   0.00   0.00     0.13  -0.13  -0.01    -0.01  -0.24   0.16
     7   1     0.00   0.00   0.00     0.13  -0.13   0.01     0.01   0.24   0.16
     8   1     0.00   0.00  -0.20     0.35  -0.10   0.00     0.00   0.00   0.14
     9   1     0.33  -0.02  -0.22    -0.15  -0.14  -0.01    -0.22   0.01   0.15
    10   1    -0.33   0.02  -0.22    -0.15  -0.14   0.01     0.22  -0.01   0.15
    11   8     0.01   0.00   0.00     0.07  -0.01   0.00     0.00  -0.18   0.02
    12   8    -0.01   0.00   0.00     0.07  -0.01   0.00     0.00   0.18   0.02
    13   8     0.23   0.00  -0.01    -0.01  -0.07   0.00    -0.17   0.00   0.02
    14   8     0.23   0.00   0.01     0.01   0.07   0.00     0.17   0.00   0.02
    15   8     0.02   0.00   0.00     0.00   0.00   0.00     0.00   0.00   0.01
    16  45    -0.04   0.00   0.00     0.00   0.00   0.00     0.00   0.00  -0.02
    17  45     0.04   0.00   0.00     0.00   0.00   0.00     0.00   0.00  -0.02
    18   8     0.01   0.00   0.00    -0.07   0.01   0.00     0.00   0.18   0.02
    19   8    -0.23   0.00  -0.01    -0.01  -0.07   0.00     0.17   0.00   0.02
    20   6     0.00   0.00  -0.11     0.00  -0.21   0.00     0.00   0.00  -0.08
    21   8    -0.01   0.00   0.00    -0.07   0.01   0.00     0.00  -0.18   0.02
    22   8    -0.23   0.00   0.01     0.01   0.07   0.00    -0.17   0.00   0.02
    23   8    -0.02   0.00   0.00     0.00   0.00   0.00     0.00   0.00   0.01
    24   6     0.00   0.00   0.00     0.19   0.00   0.00     0.00   0.00  -0.08
    25   6     0.00   0.00   0.06    -0.01  -0.01   0.00     0.00   0.00   0.04
    26   6     0.00   0.00   0.00     0.01  -0.01   0.00     0.00   0.00   0.04
    27   1     0.00   0.00   0.00    -0.10  -0.32   0.00     0.00   0.00   0.15
    28   1     0.00   0.00   0.00    -0.13   0.13   0.01    -0.01  -0.24   0.16
    29   1     0.00   0.00   0.00    -0.13   0.13  -0.01     0.01   0.24   0.16
    30   1     0.00   0.00   0.20    -0.35   0.10   0.00     0.00   0.00   0.14
    31   1    -0.33   0.02   0.22     0.15   0.14   0.01    -0.22   0.01   0.15
    32   1     0.33  -0.02   0.22     0.15   0.14  -0.01     0.22  -0.01   0.15
    33   1     0.04   0.00   0.10     0.00   0.00   0.00     0.00   0.00   0.01
    34   1     0.04   0.00  -0.10     0.00   0.00   0.00     0.00   0.00   0.01
    35   1    -0.04   0.00  -0.10     0.00   0.00   0.00     0.00   0.00   0.01
    36   1    -0.04   0.00   0.10     0.00   0.00   0.00     0.00   0.00   0.01
                    46                     47                     48
                    AG                     BU                     BU
 Frequencies --   573.4267               577.1584               578.3514
 Red. masses --     3.5400                 3.6693                 3.6503
 Frc consts  --     0.6858                 0.7202                 0.7194
 IR Inten    --     0.0000                 5.0865                 5.2573
  Atom  AN      X      Y      Z        X      Y      Z        X      Y      Z
     1   6     0.21   0.00   0.00    -0.01   0.00   0.00     0.28   0.00   0.00
     2   6     0.01  -0.01   0.00     0.00  -0.01   0.00     0.02  -0.02   0.00
     3   6     0.00   0.19   0.00     0.00   0.28   0.00     0.00   0.01   0.00
     4   6     0.01   0.01   0.00     0.02   0.02   0.00    -0.01   0.00   0.00
     5   1    -0.10  -0.36   0.00     0.01   0.01   0.00    -0.13  -0.48   0.00
     6   1    -0.13   0.15   0.01     0.01  -0.02   0.00    -0.18   0.19   0.01
     7   1    -0.13   0.15  -0.01     0.01  -0.02   0.00    -0.18   0.19  -0.01
     8   1     0.32  -0.09   0.00     0.48  -0.13   0.00     0.01  -0.01   0.00
     9   1    -0.13  -0.12  -0.01    -0.19  -0.18  -0.01    -0.02  -0.01   0.00
    10   1    -0.13  -0.12   0.01    -0.19  -0.18   0.01    -0.02  -0.01   0.00
    11   8    -0.08   0.01  -0.01     0.00   0.00   0.00    -0.12   0.02  -0.01
    12   8    -0.08   0.01   0.01     0.00   0.00   0.00    -0.12   0.02   0.01
    13   8    -0.01  -0.08   0.00    -0.02  -0.12   0.01     0.00   0.00   0.00
    14   8     0.01   0.08   0.00    -0.02  -0.12  -0.01     0.00   0.00   0.00
    15   8     0.00   0.00   0.00     0.00   0.00   0.00     0.00   0.00   0.00
    16  45     0.00   0.00   0.00     0.00   0.01   0.00     0.01   0.00   0.00
    17  45     0.00   0.00   0.00     0.00   0.01   0.00     0.01   0.00   0.00
    18   8     0.08  -0.01  -0.01     0.00   0.00   0.00    -0.12   0.02   0.01
    19   8    -0.01  -0.08   0.00    -0.02  -0.12  -0.01     0.00   0.00   0.00
    20   6     0.00  -0.19   0.00     0.00   0.28   0.00     0.00   0.01   0.00
    21   8     0.08  -0.01   0.01     0.00   0.00   0.00    -0.12   0.02  -0.01
    22   8     0.01   0.08   0.00    -0.02  -0.12   0.01     0.00   0.00   0.00
    23   8     0.00   0.00   0.00     0.00   0.00   0.00     0.00   0.00   0.00
    24   6    -0.21   0.00   0.00    -0.01   0.00   0.00     0.28   0.00   0.00
    25   6    -0.01  -0.01   0.00     0.02   0.02   0.00    -0.01   0.00   0.00
    26   6    -0.01   0.01   0.00     0.00  -0.01   0.00     0.02  -0.02   0.00
    27   1     0.10   0.36   0.00     0.01   0.01   0.00    -0.13  -0.48   0.00
    28   1     0.13  -0.15  -0.01     0.01  -0.02   0.00    -0.18   0.19   0.01
    29   1     0.13  -0.15   0.01     0.01  -0.02   0.00    -0.18   0.19  -0.01
    30   1    -0.32   0.09   0.00     0.48  -0.13   0.00     0.01  -0.01   0.00
    31   1     0.13   0.12   0.01    -0.19  -0.18  -0.01    -0.02  -0.01   0.00
    32   1     0.13   0.12  -0.01    -0.19  -0.18   0.01    -0.02  -0.01   0.00
    33   1     0.00   0.00   0.00     0.00   0.00   0.01     0.01   0.00   0.02
    34   1     0.00   0.00   0.00     0.00   0.00  -0.01     0.01   0.00  -0.02
    35   1     0.00   0.00   0.00     0.00   0.00   0.01     0.01   0.00   0.02
    36   1     0.00   0.00   0.00     0.00   0.00  -0.01     0.01   0.00  -0.02
                    49                     50                     51
                    BU                     BU                     AG
 Frequencies --   660.6280               660.8442               680.6444
 Red. masses --     9.1145                 9.0135                 8.4870
 Frc consts  --     2.3437                 2.3192                 2.3166
 IR Inten    --    76.6798                80.2474                 0.0000
  Atom  AN      X      Y      Z        X      Y      Z        X      Y      Z
     1   6    -0.05  -0.09   0.00     0.00  -0.01   0.00    -0.03  -0.05   0.00
     2   6     0.01  -0.26   0.00     0.00  -0.02   0.00     0.01  -0.18   0.00
     3   6     0.01   0.00   0.00    -0.09   0.05   0.00     0.05  -0.03   0.00
     4   6     0.02   0.00   0.00    -0.25  -0.01   0.00     0.20   0.01   0.00
     5   1     0.03  -0.20   0.00     0.00  -0.02   0.00     0.02  -0.16   0.00
     6   1     0.02  -0.29   0.00     0.00  -0.02   0.00     0.01  -0.20   0.00
     7   1     0.02  -0.29   0.00     0.00  -0.02   0.00     0.01  -0.20   0.00
     8   1     0.02   0.00   0.00    -0.20  -0.03   0.00     0.17   0.02   0.00
     9   1     0.02   0.00   0.00    -0.29  -0.02   0.00     0.22   0.01   0.00
    10   1     0.02   0.00   0.00    -0.29  -0.02   0.00     0.22   0.01   0.00
    11   8     0.01   0.24  -0.22     0.00   0.01  -0.01     0.01   0.16  -0.13
    12   8     0.01   0.24   0.22     0.00   0.01   0.01     0.01   0.16   0.13
    13   8    -0.01   0.00   0.01     0.23  -0.01  -0.22    -0.17   0.01   0.15
    14   8    -0.01   0.00  -0.01     0.23  -0.01   0.22     0.17  -0.01   0.15
    15   8     0.00   0.00   0.00     0.01   0.00   0.00     0.00   0.00   0.00
    16  45     0.00  -0.03   0.00    -0.03   0.00   0.00     0.00   0.00   0.00
    17  45     0.00  -0.03   0.00    -0.03   0.00   0.00     0.00   0.00   0.00
    18   8     0.01   0.24   0.22     0.00   0.01   0.01    -0.01  -0.16  -0.13
    19   8    -0.01   0.00  -0.01     0.23  -0.01   0.22    -0.17   0.01  -0.15
    20   6     0.01   0.00   0.00    -0.09   0.05   0.00    -0.05   0.03   0.00
    21   8     0.01   0.24  -0.22     0.00   0.01  -0.01    -0.01  -0.16   0.13
    22   8    -0.01   0.00   0.01     0.23  -0.01  -0.22     0.17  -0.01  -0.15
    23   8     0.00   0.00   0.00     0.01   0.00   0.00     0.00   0.00   0.00
    24   6    -0.05  -0.09   0.00     0.00  -0.01   0.00     0.03   0.05   0.00
    25   6     0.02   0.00   0.00    -0.25  -0.01   0.00    -0.20  -0.01   0.00
    26   6     0.01  -0.26   0.00     0.00  -0.02   0.00    -0.01   0.18   0.00
    27   1     0.03  -0.20   0.00     0.00  -0.02   0.00    -0.02   0.16   0.00
    28   1     0.02  -0.29   0.00     0.00  -0.02   0.00    -0.01   0.20   0.00
    29   1     0.02  -0.29   0.00     0.00  -0.02   0.00    -0.01   0.20   0.00
    30   1     0.02   0.00   0.00    -0.20  -0.03   0.00    -0.17  -0.02   0.00
    31   1     0.02   0.00   0.00    -0.29  -0.02   0.00    -0.22  -0.01   0.00
    32   1     0.02   0.00   0.00    -0.29  -0.02   0.00    -0.22  -0.01   0.00
    33   1     0.00   0.00   0.00    -0.02   0.00  -0.05     0.00   0.00   0.00
    34   1     0.00   0.00   0.00    -0.02   0.00   0.05     0.00   0.00   0.00
    35   1     0.00   0.00   0.00    -0.02   0.00  -0.05     0.00   0.00   0.00
    36   1     0.00   0.00   0.00    -0.02   0.00   0.05     0.00   0.00   0.00
                    52                     53                     54
                    AG                     BU                     BU
 Frequencies --   689.0578               891.1270               891.7198
 Red. masses --     8.5070                 7.2644                 7.2897
 Frc consts  --     2.3798                 3.3988                 3.4152
 IR Inten    --     0.0000                 2.9866                 2.1268
  Atom  AN      X      Y      Z        X      Y      Z        X      Y      Z
     1   6     0.03   0.05   0.00     0.02  -0.14   0.00     0.00   0.00   0.00
     2   6    -0.01   0.20   0.00    -0.02   0.26   0.00     0.00   0.00   0.00
     3   6     0.04  -0.03   0.00     0.00   0.00   0.00     0.14   0.02   0.00
     4   6     0.18   0.01   0.00     0.00   0.00   0.00    -0.26  -0.02   0.00
     5   1    -0.02   0.18   0.00    -0.01   0.31   0.00     0.00   0.00   0.00
     6   1    -0.01   0.22   0.00     0.01   0.29  -0.01     0.00   0.00   0.00
     7   1    -0.01   0.22   0.00     0.01   0.29   0.01     0.00   0.00   0.00
     8   1     0.16   0.02   0.00     0.00   0.00   0.00    -0.31  -0.01   0.00
     9   1     0.20   0.01   0.00     0.00   0.00   0.00    -0.29   0.01   0.01
    10   1     0.20   0.01   0.00     0.00   0.00   0.00    -0.29   0.01  -0.01
    11   8    -0.01  -0.17   0.14     0.00  -0.10  -0.24     0.00   0.00   0.00
    12   8    -0.01  -0.17  -0.14     0.00  -0.10   0.24     0.00   0.00   0.00
    13   8    -0.16   0.01   0.13     0.00   0.00   0.00     0.10   0.00   0.25
    14   8     0.16  -0.01   0.13     0.00   0.00   0.00     0.10   0.00  -0.25
    15   8     0.00   0.00   0.00     0.00   0.00   0.00     0.00   0.00   0.00
    16  45     0.00   0.00  -0.03     0.00   0.01   0.00    -0.01   0.00   0.00
    17  45     0.00   0.00   0.03     0.00   0.01   0.00    -0.01   0.00   0.00
    18   8     0.01   0.17   0.14     0.00  -0.10   0.24     0.00   0.00   0.00
    19   8    -0.16   0.01  -0.13     0.00   0.00   0.00     0.10   0.00  -0.25
    20   6    -0.04   0.03   0.00     0.00   0.00   0.00     0.14   0.02   0.00
    21   8     0.01   0.17  -0.14     0.00  -0.10  -0.24     0.00   0.00   0.00
    22   8     0.16  -0.01  -0.13     0.00   0.00   0.00     0.10   0.00   0.25
    23   8     0.00   0.00   0.00     0.00   0.00   0.00     0.00   0.00   0.00
    24   6    -0.03  -0.05   0.00     0.02  -0.14   0.00     0.00   0.00   0.00
    25   6    -0.18  -0.01   0.00     0.00   0.00   0.00    -0.26  -0.02   0.00
    26   6     0.01  -0.20   0.00    -0.02   0.26   0.00     0.00   0.00   0.00
    27   1     0.02  -0.18   0.00    -0.01   0.31   0.00     0.00   0.00   0.00
    28   1     0.01  -0.22   0.00     0.01   0.29  -0.01     0.00   0.00   0.00
    29   1     0.01  -0.22   0.00     0.01   0.29   0.01     0.00   0.00   0.00
    30   1    -0.16  -0.02   0.00     0.00   0.00   0.00    -0.31  -0.01   0.00
    31   1    -0.20  -0.01   0.00     0.00   0.00   0.00    -0.29   0.01   0.01
    32   1    -0.20  -0.01   0.00     0.00   0.00   0.00    -0.29   0.01  -0.01
    33   1     0.00   0.00  -0.01     0.00   0.01   0.00     0.00   0.00   0.00
    34   1     0.00   0.00  -0.01     0.00   0.01   0.00     0.00   0.00   0.00
    35   1     0.00   0.00   0.01     0.00   0.01   0.00     0.00   0.00   0.00
    36   1     0.00   0.00   0.01     0.00   0.01   0.00     0.00   0.00   0.00
                    55                     56                     57
                    AG                     AG                     BG
 Frequencies --   900.7817               903.5340              1014.1413
 Red. masses --     7.6024                 7.7471                 1.5439
 Frc consts  --     3.6345                 3.7263                 0.9356
 IR Inten    --     0.0000                 0.0000                 0.0000
  Atom  AN      X      Y      Z        X      Y      Z        X      Y      Z
     1   6    -0.02   0.12   0.00    -0.01   0.09   0.00     0.00   0.00  -0.02
     2   6     0.01  -0.20   0.00     0.01  -0.16   0.00     0.00   0.00  -0.12
     3   6    -0.09  -0.01   0.00     0.12   0.02   0.00     0.00   0.00   0.00
     4   6     0.16   0.01   0.00    -0.20  -0.01   0.00     0.00   0.00   0.00
     5   1     0.01  -0.24   0.00     0.01  -0.19   0.00     0.00   0.00   0.19
     6   1    -0.01  -0.22   0.01     0.00  -0.18   0.01    -0.04  -0.46   0.11
     7   1    -0.01  -0.22  -0.01     0.00  -0.18  -0.01     0.04   0.46   0.11
     8   1     0.19   0.01   0.00    -0.23  -0.01   0.00     0.00   0.00   0.00
     9   1     0.18   0.00  -0.01    -0.22   0.01   0.01     0.01   0.00   0.00
    10   1     0.18   0.00   0.01    -0.22   0.01  -0.01    -0.01   0.00   0.00
    11   8     0.00   0.07   0.20     0.00   0.06   0.17     0.00   0.04   0.04
    12   8     0.00   0.07  -0.20     0.00   0.06  -0.17     0.00  -0.04   0.04
    13   8    -0.06   0.00  -0.16     0.08   0.00   0.21     0.00   0.00   0.00
    14   8     0.06   0.00  -0.16    -0.08   0.00   0.21     0.00   0.00   0.00
    15   8     0.00   0.00   0.00     0.00   0.00   0.00     0.00   0.00   0.00
    16  45     0.00   0.00   0.00     0.00   0.00  -0.01     0.00   0.00   0.00
    17  45     0.00   0.00   0.00     0.00   0.00   0.01     0.00   0.00   0.00
    18   8     0.00  -0.07   0.20     0.00  -0.06   0.17     0.00   0.04  -0.04
    19   8    -0.06   0.00   0.16     0.08   0.00  -0.21     0.00   0.00   0.00
    20   6     0.09   0.01   0.00    -0.12  -0.02   0.00     0.00   0.00   0.00
    21   8     0.00  -0.07  -0.20     0.00  -0.06  -0.17     0.00  -0.04  -0.04
    22   8     0.06   0.00   0.16    -0.08   0.00  -0.21     0.00   0.00   0.00
    23   8     0.00   0.00   0.00     0.00   0.00   0.00     0.00   0.00   0.00
    24   6     0.02  -0.12   0.00     0.01  -0.09   0.00     0.00   0.00   0.02
    25   6    -0.16  -0.01   0.00     0.20   0.01   0.00     0.00   0.00   0.00
    26   6    -0.01   0.20   0.00    -0.01   0.16   0.00     0.00   0.00   0.12
    27   1    -0.01   0.24   0.00    -0.01   0.19   0.00     0.00   0.00  -0.19
    28   1     0.01   0.22  -0.01     0.00   0.18  -0.01     0.04   0.46  -0.11
    29   1     0.01   0.22   0.01     0.00   0.18   0.01    -0.04  -0.46  -0.11
    30   1    -0.19  -0.01   0.00     0.23   0.01   0.00     0.00   0.00   0.00
    31   1    -0.18   0.00   0.01     0.22  -0.01  -0.01    -0.01   0.00   0.00
    32   1    -0.18   0.00  -0.01     0.22  -0.01   0.01     0.01   0.00   0.00
    33   1     0.00   0.00   0.00     0.00   0.00   0.00     0.00   0.00   0.00
    34   1     0.00   0.00   0.00     0.00   0.00   0.00     0.00   0.00   0.00
    35   1     0.00   0.00   0.00     0.00   0.00   0.00     0.00   0.00   0.00
    36   1     0.00   0.00   0.00     0.00   0.00   0.00     0.00   0.00   0.00
                    58                     59                     60
                    BG                     AU                     AU
 Frequencies --  1014.2189              1015.9720              1016.4338
 Red. masses --     1.5436                 1.5271                 1.5186
 Frc consts  --     0.9355                 0.9287                 0.9244
 IR Inten    --     0.0000                 0.0032                10.8669
  Atom  AN      X      Y      Z        X      Y      Z        X      Y      Z
     1   6     0.00   0.00   0.00     0.00   0.00   0.01     0.00   0.00   0.01
     2   6     0.00   0.00   0.00     0.00   0.00   0.09     0.00   0.00   0.08
     3   6     0.00   0.00  -0.02     0.00   0.00  -0.01     0.00   0.00   0.01
     4   6     0.00   0.00  -0.12     0.00   0.00  -0.08     0.00   0.00   0.09
     5   1     0.00   0.00   0.00     0.00   0.00  -0.14     0.00   0.00  -0.13
     6   1     0.00  -0.01   0.00     0.03   0.34  -0.08     0.03   0.31  -0.07
     7   1     0.00   0.01   0.00    -0.03  -0.34  -0.08    -0.03  -0.31  -0.07
     8   1     0.00   0.00   0.19     0.00   0.00   0.13     0.00   0.00  -0.14
     9   1    -0.46   0.04   0.11    -0.31   0.03   0.07     0.34  -0.03  -0.08
    10   1     0.46  -0.04   0.11     0.31  -0.03   0.07    -0.34   0.03  -0.08
    11   8     0.00   0.00   0.00     0.00  -0.03  -0.03     0.00  -0.03  -0.02
    12   8     0.00   0.00   0.00     0.00   0.03  -0.03     0.00   0.03  -0.02
    13   8     0.04   0.00   0.04     0.03   0.00   0.02    -0.03   0.00  -0.03
    14   8     0.04   0.00  -0.04    -0.03   0.00   0.02     0.03   0.00  -0.03
    15   8     0.00   0.00   0.00     0.00   0.00   0.00     0.00   0.00   0.00
    16  45     0.00   0.00   0.00     0.00   0.00   0.00     0.00   0.00   0.00
    17  45     0.00   0.00   0.00     0.00   0.00   0.00     0.00   0.00   0.00
    18   8     0.00   0.00   0.00     0.00   0.03  -0.03     0.00   0.03  -0.02
    19   8    -0.04   0.00   0.04    -0.03   0.00   0.02     0.03   0.00  -0.03
    20   6     0.00   0.00   0.02     0.00   0.00  -0.01     0.00   0.00   0.01
    21   8     0.00   0.00   0.00     0.00  -0.03  -0.03     0.00  -0.03  -0.02
    22   8    -0.04   0.00  -0.04     0.03   0.00   0.02    -0.03   0.00  -0.03
    23   8     0.00   0.00   0.00     0.00   0.00   0.00     0.00   0.00   0.00
    24   6     0.00   0.00   0.00     0.00   0.00   0.01     0.00   0.00   0.01
    25   6     0.00   0.00   0.12     0.00   0.00  -0.08     0.00   0.00   0.09
    26   6     0.00   0.00   0.00     0.00   0.00   0.09     0.00   0.00   0.08
    27   1     0.00   0.00   0.00     0.00   0.00  -0.14     0.00   0.00  -0.13
    28   1     0.00   0.01   0.00     0.03   0.34  -0.08     0.03   0.31  -0.07
    29   1     0.00  -0.01   0.00    -0.03  -0.34  -0.08    -0.03  -0.31  -0.07
    30   1     0.00   0.00  -0.19     0.00   0.00   0.13     0.00   0.00  -0.14
    31   1     0.46  -0.04  -0.11    -0.31   0.03   0.07     0.34  -0.03  -0.08
    32   1    -0.46   0.04  -0.11     0.31  -0.03   0.07    -0.34   0.03  -0.08
    33   1     0.00   0.00   0.00     0.00   0.00   0.00     0.00   0.00   0.00
    34   1     0.00   0.00   0.00     0.00   0.00   0.00     0.00   0.00   0.00
    35   1     0.00   0.00   0.00     0.00   0.00   0.00     0.00   0.00   0.00
    36   1     0.00   0.00   0.00     0.00   0.00   0.00     0.00   0.00   0.00
                    61                     62                     63
                    AG                     BU                     BU
 Frequencies --  1042.8558              1044.2567              1044.3477
 Red. masses --     1.6037                 1.6010                 1.6029
 Frc consts  --     1.0276                 1.0286                 1.0300
 IR Inten    --     0.0000                16.6370                15.9097
  Atom  AN      X      Y      Z        X      Y      Z        X      Y      Z
     1   6     0.08   0.00   0.00     0.00   0.00   0.00     0.12   0.01   0.00
     2   6    -0.08  -0.01   0.00     0.00   0.00   0.00    -0.11  -0.01   0.00
     3   6     0.00  -0.08   0.00     0.01  -0.12   0.00     0.00   0.00   0.00
     4   6    -0.01   0.08   0.00    -0.01   0.11   0.00     0.00   0.00   0.00
     5   1     0.05   0.35   0.00     0.00   0.00   0.00     0.07   0.51   0.00
     6   1     0.14  -0.17  -0.04     0.00   0.00   0.00     0.20  -0.24  -0.06
     7   1     0.14  -0.17   0.04     0.00   0.00   0.00     0.20  -0.24   0.06
     8   1     0.37  -0.05   0.00     0.51  -0.07   0.00     0.00   0.00   0.00
     9   1    -0.18  -0.15  -0.04    -0.25  -0.20  -0.06     0.00   0.00   0.00
    10   1    -0.18  -0.15   0.04    -0.25  -0.20   0.06     0.00   0.00   0.00
    11   8    -0.01   0.00   0.00     0.00   0.00   0.00    -0.02   0.00   0.00
    12   8    -0.01   0.00   0.00     0.00   0.00   0.00    -0.02   0.00   0.00
    13   8     0.00   0.01   0.00     0.00   0.02   0.00     0.00   0.00   0.00
    14   8     0.00  -0.01   0.00     0.00   0.02   0.00     0.00   0.00   0.00
    15   8     0.00   0.00   0.00     0.00   0.00   0.00     0.00   0.00   0.00
    16  45     0.00   0.00   0.00     0.00   0.00   0.00     0.00   0.00   0.00
    17  45     0.00   0.00   0.00     0.00   0.00   0.00     0.00   0.00   0.00
    18   8     0.01   0.00   0.00     0.00   0.00   0.00    -0.02   0.00   0.00
    19   8     0.00   0.01   0.00     0.00   0.02   0.00     0.00   0.00   0.00
    20   6     0.00   0.08   0.00     0.01  -0.12   0.00     0.00   0.00   0.00
    21   8     0.01   0.00   0.00     0.00   0.00   0.00    -0.02   0.00   0.00
    22   8     0.00  -0.01   0.00     0.00   0.02   0.00     0.00   0.00   0.00
    23   8     0.00   0.00   0.00     0.00   0.00   0.00     0.00   0.00   0.00
    24   6    -0.08   0.00   0.00     0.00   0.00   0.00     0.12   0.01   0.00
    25   6     0.01  -0.08   0.00    -0.01   0.11   0.00     0.00   0.00   0.00
    26   6     0.08   0.01   0.00     0.00   0.00   0.00    -0.11  -0.01   0.00
    27   1    -0.05  -0.35   0.00     0.00   0.00   0.00     0.07   0.51   0.00
    28   1    -0.14   0.17   0.04     0.00   0.00   0.00     0.20  -0.24  -0.06
    29   1    -0.14   0.17  -0.04     0.00   0.00   0.00     0.20  -0.24   0.06
    30   1    -0.37   0.05   0.00     0.51  -0.07   0.00     0.00   0.00   0.00
    31   1     0.18   0.15   0.04    -0.25  -0.20  -0.06     0.00   0.00   0.00
    32   1     0.18   0.15  -0.04    -0.25  -0.20   0.06     0.00   0.00   0.00
    33   1     0.00   0.00   0.00     0.00   0.00   0.00     0.00   0.00   0.00
    34   1     0.00   0.00   0.00     0.00   0.00   0.00     0.00   0.00   0.00
    35   1     0.00   0.00   0.00     0.00   0.00   0.00     0.00   0.00   0.00
    36   1     0.00   0.00   0.00     0.00   0.00   0.00     0.00   0.00   0.00
                    64                     65                     66
                    AG                     AG                     BU
 Frequencies --  1044.5453              1336.6115              1337.3800
 Red. masses --     1.6019                 6.3413                 6.2460
 Frc consts  --     1.0298                 6.6748                 6.5821
 IR Inten    --     0.0000                 0.0000               308.7416
  Atom  AN      X      Y      Z        X      Y      Z        X      Y      Z
     1   6     0.08   0.00   0.00     0.00   0.31   0.00    -0.01   0.42   0.00
     2   6    -0.08  -0.01   0.00     0.01  -0.05   0.00     0.01  -0.07   0.00
     3   6     0.00   0.08   0.00    -0.28   0.00   0.00     0.00   0.00   0.00
     4   6     0.01  -0.08   0.00     0.05   0.01   0.00     0.00   0.00   0.00
     5   1     0.05   0.37   0.00    -0.02  -0.17   0.00    -0.03  -0.23   0.00
     6   1     0.15  -0.18  -0.04    -0.03  -0.23   0.08    -0.03  -0.31   0.11
     7   1     0.15  -0.18   0.04    -0.03  -0.23  -0.08    -0.03  -0.31  -0.11
     8   1    -0.35   0.05   0.00     0.15  -0.02   0.00     0.00   0.00   0.00
     9   1     0.17   0.14   0.04     0.21  -0.02  -0.07     0.00   0.00   0.00
    10   1     0.17   0.14  -0.04     0.21  -0.02   0.07     0.00   0.00   0.00
    11   8    -0.01   0.00   0.00     0.00  -0.08  -0.08     0.00  -0.10  -0.11
    12   8    -0.01   0.00   0.00     0.00  -0.08   0.08     0.00  -0.10   0.11
    13   8     0.00  -0.01   0.00     0.07   0.00   0.07     0.00   0.00   0.00
    14   8     0.00   0.01   0.00    -0.07   0.00   0.07     0.00   0.00   0.00
    15   8     0.00   0.00   0.00     0.00   0.00   0.00     0.00   0.00   0.00
    16  45     0.00   0.00   0.00     0.00   0.00   0.00     0.00   0.00   0.00
    17  45     0.00   0.00   0.00     0.00   0.00   0.00     0.00   0.00   0.00
    18   8     0.01   0.00   0.00     0.00   0.08  -0.08     0.00  -0.10   0.11
    19   8     0.00  -0.01   0.00     0.07   0.00  -0.07     0.00   0.00   0.00
    20   6     0.00  -0.08   0.00     0.28   0.00   0.00     0.00   0.00   0.00
    21   8     0.01   0.00   0.00     0.00   0.08   0.08     0.00  -0.10  -0.11
    22   8     0.00   0.01   0.00    -0.07   0.00  -0.07     0.00   0.00   0.00
    23   8     0.00   0.00   0.00     0.00   0.00   0.00     0.00   0.00   0.00
    24   6    -0.08   0.00   0.00     0.00  -0.31   0.00    -0.01   0.42   0.00
    25   6    -0.01   0.08   0.00    -0.05  -0.01   0.00     0.00   0.00   0.00
    26   6     0.08   0.01   0.00    -0.01   0.05   0.00     0.01  -0.07   0.00
    27   1    -0.05  -0.37   0.00     0.02   0.17   0.00    -0.03  -0.23   0.00
    28   1    -0.15   0.18   0.04     0.03   0.23  -0.08    -0.03  -0.31   0.11
    29   1    -0.15   0.18  -0.04     0.03   0.23   0.08    -0.03  -0.31  -0.11
    30   1     0.35  -0.05   0.00    -0.15   0.02   0.00     0.00   0.00   0.00
    31   1    -0.17  -0.14  -0.04    -0.21   0.02   0.07     0.00   0.00   0.00
    32   1    -0.17  -0.14   0.04    -0.21   0.02  -0.07     0.00   0.00   0.00
    33   1     0.00   0.00   0.00     0.00   0.00   0.01     0.00   0.00   0.00
    34   1     0.00   0.00   0.00     0.00   0.00   0.01     0.00   0.00   0.00
    35   1     0.00   0.00   0.00     0.00   0.00  -0.01     0.00   0.00   0.00
    36   1     0.00   0.00   0.00     0.00   0.00  -0.01     0.00   0.00   0.00
                    67                     68                     69
                    BU                     AG                     AG
 Frequencies --  1338.3947              1348.4255              1378.8901
 Red. masses --     6.1627                 5.1227                 1.3073
 Frc consts  --     6.5041                 5.4879                 1.4644
 IR Inten    --   299.7009                 0.0000                 0.0000
  Atom  AN      X      Y      Z        X      Y      Z        X      Y      Z
     1   6     0.00   0.00   0.00     0.00  -0.25   0.00     0.00   0.03   0.00
     2   6     0.00   0.00   0.00    -0.01   0.03   0.00     0.01  -0.09   0.00
     3   6     0.41   0.01   0.00    -0.27   0.00   0.00    -0.02   0.00   0.00
     4   6    -0.07  -0.01   0.00     0.03   0.01   0.00     0.06   0.01   0.00
     5   1     0.00   0.00   0.00     0.03   0.17   0.00     0.13   0.33   0.00
     6   1     0.00   0.00   0.00     0.02   0.23  -0.09    -0.11   0.30  -0.10
     7   1     0.00   0.00   0.00     0.02   0.23   0.09    -0.11   0.30   0.10
     8   1    -0.23   0.03   0.00     0.19  -0.04   0.00    -0.21   0.08   0.00
     9   1    -0.31   0.03   0.11     0.25  -0.02  -0.09    -0.19  -0.07   0.06
    10   1    -0.31   0.03  -0.11     0.25  -0.02   0.09    -0.19  -0.07  -0.06
    11   8     0.00   0.00   0.00     0.00   0.06   0.06     0.00  -0.01  -0.01
    12   8     0.00   0.00   0.00     0.00   0.06  -0.06     0.00  -0.01   0.01
    13   8    -0.10   0.00  -0.11     0.07   0.00   0.07     0.00   0.00   0.00
    14   8    -0.10   0.00   0.11    -0.07   0.00   0.07     0.00   0.00   0.00
    15   8     0.00   0.00   0.00     0.00   0.00   0.00     0.00   0.00   0.00
    16  45     0.00   0.00   0.00     0.00   0.00   0.00     0.00   0.00   0.00
    17  45     0.00   0.00   0.00     0.00   0.00   0.00     0.00   0.00   0.00
    18   8     0.00   0.00   0.00     0.00  -0.06   0.06     0.00   0.01  -0.01
    19   8    -0.10   0.00   0.11     0.07   0.00  -0.07     0.00   0.00   0.00
    20   6     0.41   0.01   0.00     0.27   0.00   0.00     0.02   0.00   0.00
    21   8     0.00   0.00   0.00     0.00  -0.06  -0.06     0.00   0.01   0.01
    22   8    -0.10   0.00  -0.11    -0.07   0.00  -0.07     0.00   0.00   0.00
    23   8     0.00   0.00   0.00     0.00   0.00   0.00     0.00   0.00   0.00
    24   6     0.00   0.00   0.00     0.00   0.25   0.00     0.00  -0.03   0.00
    25   6    -0.07  -0.01   0.00    -0.03  -0.01   0.00    -0.06  -0.01   0.00
    26   6     0.00   0.00   0.00     0.01  -0.03   0.00    -0.01   0.09   0.00
    27   1     0.00   0.00   0.00    -0.03  -0.17   0.00    -0.13  -0.33   0.00
    28   1     0.00   0.00   0.00    -0.02  -0.23   0.09     0.11  -0.30   0.10
    29   1     0.00   0.00   0.00    -0.02  -0.23  -0.09     0.11  -0.30  -0.10
    30   1    -0.23   0.03   0.00    -0.19   0.04   0.00     0.21  -0.08   0.00
    31   1    -0.31   0.03   0.11    -0.25   0.02   0.09     0.19   0.07  -0.06
    32   1    -0.31   0.03  -0.11    -0.25   0.02  -0.09     0.19   0.07   0.06
    33   1     0.00   0.00   0.00     0.01   0.00   0.01     0.00   0.00   0.00
    34   1     0.00   0.00   0.00    -0.01   0.00   0.01     0.00   0.00   0.00
    35   1     0.00   0.00   0.00    -0.01   0.00  -0.01     0.00   0.00   0.00
    36   1     0.00   0.00   0.00     0.01   0.00  -0.01     0.00   0.00   0.00
                    70                     71                     72
                    BG                     BU                     BU
 Frequencies --  1378.9094              1379.1461              1379.9595
 Red. masses --     5.2118                 1.3089                 1.3114
 Frc consts  --     5.8387                 1.4668                 1.4714
 IR Inten    --     0.0000               108.4827               110.7018
  Atom  AN      X      Y      Z        X      Y      Z        X      Y      Z
     1   6     0.00   0.00   0.37     0.00  -0.04   0.00     0.00   0.00   0.00
     2   6     0.00   0.00  -0.08    -0.01   0.11   0.00     0.00   0.00   0.00
     3   6     0.00   0.00   0.00     0.00   0.00   0.00    -0.04   0.00   0.00
     4   6     0.00   0.00   0.00     0.00   0.00   0.00     0.11   0.01   0.00
     5   1     0.00   0.00   0.45    -0.15  -0.39   0.00     0.00   0.00   0.00
     6   1    -0.22  -0.07   0.09     0.13  -0.35   0.12     0.00   0.00   0.00
     7   1     0.22   0.07   0.09     0.13  -0.35  -0.12     0.00   0.00   0.00
     8   1     0.00   0.00  -0.02     0.00   0.00   0.00    -0.39   0.15   0.00
     9   1    -0.01  -0.01   0.00     0.00   0.00   0.00    -0.35  -0.13   0.12
    10   1     0.01   0.01   0.00     0.00   0.00   0.00    -0.35  -0.13  -0.12
    11   8     0.00  -0.05  -0.12     0.00   0.01   0.01     0.00   0.00   0.00
    12   8     0.00   0.05  -0.12     0.00   0.01  -0.01     0.00   0.00   0.00
    13   8     0.00   0.00   0.00     0.00   0.00   0.00     0.01   0.00   0.01
    14   8     0.00   0.00   0.00     0.00   0.00   0.00     0.01   0.00  -0.01
    15   8     0.00   0.00   0.00     0.00   0.00   0.00     0.00   0.00   0.00
    16  45     0.00   0.00   0.00     0.00   0.00   0.00     0.00   0.00   0.00
    17  45     0.00   0.00   0.00     0.00   0.00   0.00     0.00   0.00   0.00
    18   8     0.00  -0.05   0.12     0.00   0.01  -0.01     0.00   0.00   0.00
    19   8     0.00   0.00   0.00     0.00   0.00   0.00     0.01   0.00  -0.01
    20   6     0.00   0.00   0.00     0.00   0.00   0.00    -0.04   0.00   0.00
    21   8     0.00   0.05   0.12     0.00   0.01   0.01     0.00   0.00   0.00
    22   8     0.00   0.00   0.00     0.00   0.00   0.00     0.01   0.00   0.01
    23   8     0.00   0.00   0.00     0.00   0.00   0.00     0.00   0.00   0.00
    24   6     0.00   0.00  -0.37     0.00  -0.04   0.00     0.00   0.00   0.00
    25   6     0.00   0.00   0.00     0.00   0.00   0.00     0.11   0.01   0.00
    26   6     0.00   0.00   0.08    -0.01   0.11   0.00     0.00   0.00   0.00
    27   1     0.00   0.00  -0.45    -0.15  -0.39   0.00     0.00   0.00   0.00
    28   1     0.22   0.07  -0.09     0.13  -0.35   0.12     0.00   0.00   0.00
    29   1    -0.22  -0.07  -0.09     0.13  -0.35  -0.12     0.00   0.00   0.00
    30   1     0.00   0.00   0.02     0.00   0.00   0.00    -0.39   0.15   0.00
    31   1     0.01   0.01   0.00     0.00   0.00   0.00    -0.35  -0.13   0.12
    32   1    -0.01  -0.01   0.00     0.00   0.00   0.00    -0.35  -0.13  -0.12
    33   1     0.00   0.02   0.00     0.00   0.00   0.00     0.00   0.00   0.00
    34   1     0.00   0.02   0.00     0.00   0.00   0.00     0.00   0.00   0.00
    35   1     0.00  -0.02   0.00     0.00   0.00   0.00     0.00   0.00   0.00
    36   1     0.00  -0.02   0.00     0.00   0.00   0.00     0.00   0.00   0.00
                    73                     74                     75
                    BG                     AG                     AU
 Frequencies --  1380.7586              1380.8462              1412.9994
 Red. masses --     5.1045                 1.3635                 2.9758
 Frc consts  --     5.7337                 1.5318                 3.5006
 IR Inten    --     0.0000                 0.0000                 0.6727
  Atom  AN      X      Y      Z        X      Y      Z        X      Y      Z
     1   6     0.00   0.00   0.00     0.00   0.03   0.00     0.00   0.00   0.17
     2   6     0.00   0.00   0.00     0.01  -0.06   0.00     0.00   0.00  -0.05
     3   6     0.00   0.00   0.36     0.04   0.00   0.00     0.00   0.00  -0.17
     4   6     0.00   0.00  -0.08    -0.09  -0.01   0.00     0.00   0.00   0.05
     5   1     0.00   0.00   0.02     0.08   0.21   0.00     0.00   0.00   0.35
     6   1    -0.01   0.01   0.00    -0.07   0.19  -0.06    -0.19   0.03   0.06
     7   1     0.01  -0.01   0.00    -0.07   0.19   0.06     0.19  -0.03   0.06
     8   1     0.00   0.00   0.45     0.33  -0.13   0.00     0.00   0.00  -0.36
     9   1    -0.06   0.22   0.09     0.29   0.12  -0.10    -0.03  -0.19  -0.06
    10   1     0.06  -0.22   0.09     0.29   0.12   0.10     0.03   0.19  -0.06
    11   8     0.00   0.00   0.00     0.00  -0.01  -0.01     0.00  -0.03  -0.06
    12   8     0.00   0.00   0.00     0.00  -0.01   0.01     0.00   0.03  -0.06
    13   8    -0.05   0.00  -0.12    -0.01   0.00  -0.01     0.03   0.00   0.06
    14   8    -0.05   0.00   0.12     0.01   0.00  -0.01    -0.03   0.00   0.06
    15   8     0.00   0.00   0.00     0.00   0.00   0.00     0.00   0.00   0.00
    16  45     0.00   0.00   0.00     0.00   0.00   0.00     0.00   0.00   0.00
    17  45     0.00   0.00   0.00     0.00   0.00   0.00     0.00   0.00   0.00
    18   8     0.00   0.00   0.00     0.00   0.01  -0.01     0.00   0.03  -0.06
    19   8     0.05   0.00  -0.12    -0.01   0.00   0.01    -0.03   0.00   0.06
    20   6     0.00   0.00  -0.36    -0.04   0.00   0.00     0.00   0.00  -0.17
    21   8     0.00   0.00   0.00     0.00   0.01   0.01     0.00  -0.03  -0.06
    22   8     0.05   0.00   0.12     0.01   0.00   0.01     0.03   0.00   0.06
    23   8     0.00   0.00   0.00     0.00   0.00   0.00     0.00   0.00   0.00
    24   6     0.00   0.00   0.00     0.00  -0.03   0.00     0.00   0.00   0.17
    25   6     0.00   0.00   0.08     0.09   0.01   0.00     0.00   0.00   0.05
    26   6     0.00   0.00   0.00    -0.01   0.06   0.00     0.00   0.00  -0.05
    27   1     0.00   0.00  -0.02    -0.08  -0.21   0.00     0.00   0.00   0.35
    28   1     0.01  -0.01   0.00     0.07  -0.19   0.06    -0.19   0.03   0.06
    29   1    -0.01   0.01   0.00     0.07  -0.19  -0.06     0.19  -0.03   0.06
    30   1     0.00   0.00  -0.45    -0.33   0.13   0.00     0.00   0.00  -0.36
    31   1     0.06  -0.22  -0.09    -0.29  -0.12   0.10    -0.03  -0.19  -0.06
    32   1    -0.06   0.22  -0.09    -0.29  -0.12  -0.10     0.03   0.19  -0.06
    33   1     0.01   0.00   0.02     0.00   0.00  -0.01    -0.02   0.00  -0.03
    34   1     0.01   0.00  -0.02     0.00   0.00  -0.01     0.02   0.00  -0.03
    35   1    -0.01   0.00  -0.02     0.00   0.00   0.01    -0.02   0.00  -0.03
    36   1    -0.01   0.00   0.02     0.00   0.00   0.01     0.02   0.00  -0.03
                    76                     77                     78
                    AU                     AG                     BU
 Frequencies --  1439.2322              1458.0612              1458.1669
 Red. masses --     1.3817                 1.0605                 1.0600
 Frc consts  --     1.6862                 1.3283                 1.3279
 IR Inten    --   361.4761                 0.0000                30.6618
  Atom  AN      X      Y      Z        X      Y      Z        X      Y      Z
     1   6     0.00   0.00   0.07    -0.01   0.02   0.00     0.01  -0.02   0.00
     2   6     0.00   0.00  -0.04    -0.03  -0.01   0.00     0.04   0.01   0.00
     3   6     0.00   0.00   0.07    -0.01  -0.01   0.00     0.00   0.00   0.00
     4   6     0.00   0.00  -0.04     0.01  -0.02   0.00     0.00   0.00   0.00
     5   1     0.00   0.00   0.37    -0.08  -0.21   0.00     0.09   0.24   0.00
     6   1    -0.20   0.10   0.04     0.30   0.14  -0.24    -0.34  -0.15   0.27
     7   1     0.20  -0.10   0.04     0.30   0.14   0.24    -0.34  -0.15  -0.27
     8   1     0.00   0.00   0.36     0.11  -0.04   0.00     0.00   0.00   0.00
     9   1     0.10   0.20   0.04    -0.08   0.16   0.13     0.00   0.00   0.00
    10   1    -0.10  -0.20   0.04    -0.08   0.16  -0.13     0.00   0.00   0.00
    11   8     0.00  -0.01  -0.03     0.00   0.00   0.00     0.00   0.00   0.00
    12   8     0.00   0.01  -0.03     0.00   0.00   0.00     0.00   0.00   0.00
    13   8    -0.01   0.00  -0.03     0.00   0.00   0.00     0.00   0.00   0.00
    14   8     0.01   0.00  -0.03     0.00   0.00   0.00     0.00   0.00   0.00
    15   8     0.00   0.00  -0.01     0.00   0.00   0.00     0.00   0.00   0.00
    16  45     0.00   0.00   0.00     0.00   0.00   0.00     0.00   0.00   0.00
    17  45     0.00   0.00   0.00     0.00   0.00   0.00     0.00   0.00   0.00
    18   8     0.00   0.01  -0.03     0.00   0.00   0.00     0.00   0.00   0.00
    19   8     0.01   0.00  -0.03     0.00   0.00   0.00     0.00   0.00   0.00
    20   6     0.00   0.00   0.07     0.01   0.01   0.00     0.00   0.00   0.00
    21   8     0.00  -0.01  -0.03     0.00   0.00   0.00     0.00   0.00   0.00
    22   8    -0.01   0.00  -0.03     0.00   0.00   0.00     0.00   0.00   0.00
    23   8     0.00   0.00  -0.01     0.00   0.00   0.00     0.00   0.00   0.00
    24   6     0.00   0.00   0.07     0.01  -0.02   0.00     0.01  -0.02   0.00
    25   6     0.00   0.00  -0.04    -0.01   0.02   0.00     0.00   0.00   0.00
    26   6     0.00   0.00  -0.04     0.03   0.01   0.00     0.04   0.01   0.00
    27   1     0.00   0.00   0.37     0.08   0.21   0.00     0.09   0.24   0.00
    28   1    -0.20   0.10   0.04    -0.30  -0.14   0.24    -0.34  -0.15   0.27
    29   1     0.20  -0.10   0.04    -0.30  -0.14  -0.24    -0.34  -0.15  -0.27
    30   1     0.00   0.00   0.36    -0.11   0.04   0.00     0.00   0.00   0.00
    31   1     0.10   0.20   0.04     0.08  -0.16  -0.13     0.00   0.00   0.00
    32   1    -0.10  -0.20   0.04     0.08  -0.16   0.13     0.00   0.00   0.00
    33   1     0.02   0.00   0.03     0.00   0.00   0.00     0.00   0.00   0.00
    34   1    -0.02   0.00   0.03     0.00   0.00   0.00     0.00   0.00   0.00
    35   1     0.02   0.00   0.03     0.00   0.00   0.00     0.00   0.00   0.00
    36   1    -0.02   0.00   0.03     0.00   0.00   0.00     0.00   0.00   0.00
                    79                     80                     81
                    BU                     AG                     BG
 Frequencies --  1458.7035              1459.0147              1465.0904
 Red. masses --     1.0604                 1.0630                 1.1311
 Frc consts  --     1.3293                 1.3333                 1.4304
 IR Inten    --    31.4058                 0.0000                 0.0000
  Atom  AN      X      Y      Z        X      Y      Z        X      Y      Z
     1   6     0.00   0.00   0.00     0.01  -0.01   0.00     0.00   0.00  -0.06
     2   6     0.00   0.00   0.00     0.02   0.01   0.00     0.00   0.00  -0.03
     3   6    -0.02  -0.01   0.00    -0.02  -0.01   0.00     0.00   0.00   0.00
     4   6     0.02  -0.04   0.00     0.01  -0.03   0.00     0.00   0.00   0.00
     5   1     0.00   0.00   0.00     0.04   0.12   0.00     0.00   0.00   0.48
     6   1     0.00   0.00   0.00    -0.16  -0.07   0.13    -0.28   0.22   0.04
     7   1     0.00   0.00   0.00    -0.16  -0.07  -0.13     0.28  -0.22   0.04
     8   1     0.24  -0.09   0.00     0.21  -0.08   0.00     0.00   0.00  -0.03
     9   1    -0.16   0.34   0.27    -0.14   0.30   0.24    -0.01  -0.01   0.00
    10   1    -0.16   0.34  -0.27    -0.14   0.30  -0.24     0.01   0.01   0.00
    11   8     0.00   0.00   0.00     0.00   0.00   0.00     0.00   0.01   0.02
    12   8     0.00   0.00   0.00     0.00   0.00   0.00     0.00  -0.01   0.02
    13   8     0.00   0.00   0.00     0.00   0.00   0.00     0.00   0.00   0.00
    14   8     0.00   0.00   0.00     0.00   0.00   0.00     0.00   0.00   0.00
    15   8     0.00   0.00   0.00     0.00   0.00   0.00     0.00   0.00   0.00
    16  45     0.00   0.00   0.00     0.00   0.00   0.00     0.00   0.00   0.00
    17  45     0.00   0.00   0.00     0.00   0.00   0.00     0.00   0.00   0.00
    18   8     0.00   0.00   0.00     0.00   0.00   0.00     0.00   0.01  -0.02
    19   8     0.00   0.00   0.00     0.00   0.00   0.00     0.00   0.00   0.00
    20   6    -0.02  -0.01   0.00     0.02   0.01   0.00     0.00   0.00   0.00
    21   8     0.00   0.00   0.00     0.00   0.00   0.00     0.00  -0.01  -0.02
    22   8     0.00   0.00   0.00     0.00   0.00   0.00     0.00   0.00   0.00
    23   8     0.00   0.00   0.00     0.00   0.00   0.00     0.00   0.00   0.00
    24   6     0.00   0.00   0.00    -0.01   0.01   0.00     0.00   0.00   0.06
    25   6     0.02  -0.04   0.00    -0.01   0.03   0.00     0.00   0.00   0.00
    26   6     0.00   0.00   0.00    -0.02  -0.01   0.00     0.00   0.00   0.03
    27   1     0.00   0.00   0.00    -0.04  -0.12   0.00     0.00   0.00  -0.48
    28   1     0.00   0.00   0.00     0.16   0.07  -0.13     0.28  -0.22  -0.04
    29   1     0.00   0.00   0.00     0.16   0.07   0.13    -0.28   0.22  -0.04
    30   1     0.24  -0.09   0.00    -0.21   0.08   0.00     0.00   0.00   0.03
    31   1    -0.16   0.34   0.27     0.14  -0.30  -0.24     0.01   0.01   0.00
    32   1    -0.16   0.34  -0.27     0.14  -0.30   0.24    -0.01  -0.01   0.00
    33   1     0.00   0.00   0.00     0.00   0.00   0.00     0.00   0.00   0.00
    34   1     0.00   0.00   0.00     0.00   0.00   0.00     0.00   0.00   0.00
    35   1     0.00   0.00   0.00     0.00   0.00   0.00     0.00   0.00   0.00
    36   1     0.00   0.00   0.00     0.00   0.00   0.00     0.00   0.00   0.00
                    82                     83                     84
                    BG                     AU                     AU
 Frequencies --  1465.3083              1474.0166              1501.2079
 Red. masses --     1.1363                 1.3579                 2.2530
 Frc consts  --     1.4375                 1.7383                 2.9916
 IR Inten    --     0.0000                 0.6215               338.9317
  Atom  AN      X      Y      Z        X      Y      Z        X      Y      Z
     1   6     0.00   0.00   0.00     0.00   0.00   0.08     0.00   0.00   0.15
     2   6     0.00   0.00   0.00     0.00   0.00   0.02     0.00   0.00   0.00
     3   6     0.00   0.00  -0.06     0.00   0.00  -0.08     0.00   0.00   0.14
     4   6     0.00   0.00  -0.03     0.00   0.00  -0.02     0.00   0.00   0.00
     5   1     0.00   0.00   0.03     0.00   0.00  -0.32     0.00   0.00  -0.24
     6   1    -0.01   0.01   0.00     0.19  -0.17  -0.02     0.15  -0.18   0.00
     7   1     0.01  -0.01   0.00    -0.19   0.17  -0.02    -0.15   0.18   0.00
     8   1     0.00   0.00   0.48     0.00   0.00   0.33     0.00   0.00  -0.22
     9   1     0.23   0.28   0.04     0.18   0.20   0.02    -0.16  -0.14   0.00
    10   1    -0.23  -0.28   0.04    -0.18  -0.20   0.02     0.16   0.14   0.00
    11   8     0.00   0.00   0.00     0.00  -0.01  -0.02     0.00  -0.02  -0.05
    12   8     0.00   0.00   0.00     0.00   0.01  -0.02     0.00   0.02  -0.05
    13   8     0.01   0.00   0.02     0.01   0.00   0.02    -0.02   0.00  -0.04
    14   8     0.01   0.00  -0.02    -0.01   0.00   0.02     0.02   0.00  -0.04
    15   8     0.00   0.00   0.00     0.00   0.00   0.00     0.00   0.00  -0.03
    16  45     0.00   0.00   0.00     0.00   0.00   0.00     0.00   0.00   0.00
    17  45     0.00   0.00   0.00     0.00   0.00   0.00     0.00   0.00   0.00
    18   8     0.00   0.00   0.00     0.00   0.01  -0.02     0.00   0.02  -0.05
    19   8    -0.01   0.00   0.02    -0.01   0.00   0.02     0.02   0.00  -0.04
    20   6     0.00   0.00   0.06     0.00   0.00  -0.08     0.00   0.00   0.14
    21   8     0.00   0.00   0.00     0.00  -0.01  -0.02     0.00  -0.02  -0.05
    22   8    -0.01   0.00  -0.02     0.01   0.00   0.02    -0.02   0.00  -0.04
    23   8     0.00   0.00   0.00     0.00   0.00   0.00     0.00   0.00  -0.03
    24   6     0.00   0.00   0.00     0.00   0.00   0.08     0.00   0.00   0.15
    25   6     0.00   0.00   0.03     0.00   0.00  -0.02     0.00   0.00   0.00
    26   6     0.00   0.00   0.00     0.00   0.00   0.02     0.00   0.00   0.00
    27   1     0.00   0.00  -0.03     0.00   0.00  -0.32     0.00   0.00  -0.24
    28   1     0.01  -0.01   0.00     0.19  -0.17  -0.02     0.15  -0.18   0.00
    29   1    -0.01   0.01   0.00    -0.19   0.17  -0.02    -0.15   0.18   0.00
    30   1     0.00   0.00  -0.48     0.00   0.00   0.33     0.00   0.00  -0.22
    31   1    -0.23  -0.28  -0.04     0.18   0.20   0.02    -0.16  -0.14   0.00
    32   1     0.23   0.28  -0.04    -0.18  -0.20   0.02     0.16   0.14   0.00
    33   1     0.00   0.00   0.00    -0.01   0.00  -0.02     0.14   0.00   0.23
    34   1     0.00   0.00   0.00     0.01   0.00  -0.02    -0.14   0.00   0.23
    35   1     0.00   0.00   0.00    -0.01   0.00  -0.02     0.14   0.00   0.23
    36   1     0.00   0.00   0.00     0.01   0.00  -0.02    -0.14   0.00   0.23
                    85                     86                     87
                    AG                     AU                     BU
 Frequencies --  1528.8581              1530.5913              2988.6051
 Red. masses --     1.1006                 1.2472                 1.0374
 Frc consts  --     1.5157                 1.7215                 5.4591
 IR Inten    --     0.0000                 9.9799                24.4239
  Atom  AN      X      Y      Z        X      Y      Z        X      Y      Z
     1   6     0.00   0.00   0.00     0.00   0.00   0.04     0.00   0.00   0.00
     2   6     0.00   0.00   0.00     0.00   0.00   0.00    -0.02   0.03   0.00
     3   6     0.00   0.00   0.00     0.00   0.00   0.06     0.00   0.00   0.00
     4   6     0.00   0.00   0.00     0.00   0.00   0.00     0.00   0.00   0.00
     5   1     0.00   0.00   0.00     0.00   0.00  -0.04     0.50  -0.15   0.00
     6   1     0.00   0.00   0.00     0.03  -0.04   0.00    -0.16  -0.11  -0.28
     7   1     0.00   0.00   0.00    -0.03   0.04   0.00    -0.16  -0.11   0.28
     8   1     0.00   0.00   0.00     0.00   0.00  -0.05     0.00   0.00   0.00
     9   1     0.00   0.00   0.00    -0.05  -0.03   0.00     0.00   0.00   0.00
    10   1     0.00   0.00   0.00     0.05   0.03   0.00     0.00   0.00   0.00
    11   8     0.00   0.00   0.00     0.00  -0.01  -0.01     0.00   0.00   0.00
    12   8     0.00   0.00   0.00     0.00   0.01  -0.01     0.00   0.00   0.00
    13   8     0.00   0.00   0.00    -0.01   0.00  -0.02     0.00   0.00   0.00
    14   8     0.00   0.00   0.00     0.01   0.00  -0.02     0.00   0.00   0.00
    15   8     0.00   0.00   0.06     0.00   0.00   0.05     0.00   0.00   0.00
    16  45     0.00   0.00   0.00     0.00   0.00   0.00     0.00   0.00   0.00
    17  45     0.00   0.00   0.00     0.00   0.00   0.00     0.00   0.00   0.00
    18   8     0.00   0.00   0.00     0.00   0.01  -0.01     0.00   0.00   0.00
    19   8     0.00   0.00   0.00     0.01   0.00  -0.02     0.00   0.00   0.00
    20   6     0.00   0.00   0.00     0.00   0.00   0.06     0.00   0.00   0.00
    21   8     0.00   0.00   0.00     0.00  -0.01  -0.01     0.00   0.00   0.00
    22   8     0.00   0.00   0.00    -0.01   0.00  -0.02     0.00   0.00   0.00
    23   8     0.00   0.00  -0.06     0.00   0.00   0.05     0.00   0.00   0.00
    24   6     0.00   0.00   0.00     0.00   0.00   0.04     0.00   0.00   0.00
    25   6     0.00   0.00   0.00     0.00   0.00   0.00     0.00   0.00   0.00
    26   6     0.00   0.00   0.00     0.00   0.00   0.00    -0.02   0.03   0.00
    27   1     0.00   0.00   0.00     0.00   0.00  -0.04     0.50  -0.15   0.00
    28   1     0.00   0.00   0.00     0.03  -0.04   0.00    -0.16  -0.11  -0.28
    29   1     0.00   0.00   0.00    -0.03   0.04   0.00    -0.16  -0.11   0.28
    30   1     0.00   0.00   0.00     0.00   0.00  -0.05     0.00   0.00   0.00
    31   1     0.00   0.00   0.00    -0.05  -0.03   0.00     0.00   0.00   0.00
    32   1     0.00   0.00   0.00     0.05   0.03   0.00     0.00   0.00   0.00
    33   1     0.26   0.00   0.42    -0.26   0.00  -0.41     0.00   0.00   0.00
    34   1    -0.26   0.00   0.42     0.26   0.00  -0.41     0.00   0.00   0.00
    35   1    -0.26   0.00  -0.42    -0.26   0.00  -0.41     0.00   0.00   0.00
    36   1     0.26   0.00  -0.42     0.26   0.00  -0.41     0.00   0.00   0.00
                    88                     89                     90
                    AG                     BU                     AG
 Frequencies --  2988.6848              2988.7887              2988.9129
 Red. masses --     1.0374                 1.0374                 1.0374
 Frc consts  --     5.4594                 5.4601                 5.4604
 IR Inten    --     0.0000                23.6441                 0.0000
  Atom  AN      X      Y      Z        X      Y      Z        X      Y      Z
     1   6     0.00   0.00   0.00     0.00   0.00   0.00     0.00   0.00   0.00
     2   6     0.01  -0.03   0.00     0.00   0.00   0.00    -0.01   0.01   0.00
     3   6     0.00   0.00   0.00     0.00   0.00   0.00     0.00   0.00   0.00
     4   6     0.01   0.01   0.00    -0.03  -0.02   0.00     0.03   0.01   0.00
     5   1    -0.47   0.14   0.00     0.00   0.00   0.00     0.16  -0.05   0.00
     6   1     0.15   0.11   0.26     0.00   0.00   0.00    -0.05  -0.04  -0.09
     7   1     0.15   0.11  -0.26     0.00   0.00   0.00    -0.05  -0.04   0.09
     8   1    -0.05  -0.16   0.00     0.15   0.50   0.00    -0.14  -0.47   0.00
     9   1    -0.04   0.05  -0.09     0.11  -0.16   0.28    -0.11   0.15  -0.26
    10   1    -0.04   0.05   0.09     0.11  -0.16  -0.28    -0.11   0.15   0.26
    11   8     0.00   0.00   0.00     0.00   0.00   0.00     0.00   0.00   0.00
    12   8     0.00   0.00   0.00     0.00   0.00   0.00     0.00   0.00   0.00
    13   8     0.00   0.00   0.00     0.00   0.00   0.00     0.00   0.00   0.00
    14   8     0.00   0.00   0.00     0.00   0.00   0.00     0.00   0.00   0.00
    15   8     0.00   0.00   0.00     0.00   0.00   0.00     0.00   0.00   0.00
    16  45     0.00   0.00   0.00     0.00   0.00   0.00     0.00   0.00   0.00
    17  45     0.00   0.00   0.00     0.00   0.00   0.00     0.00   0.00   0.00
    18   8     0.00   0.00   0.00     0.00   0.00   0.00     0.00   0.00   0.00
    19   8     0.00   0.00   0.00     0.00   0.00   0.00     0.00   0.00   0.00
    20   6     0.00   0.00   0.00     0.00   0.00   0.00     0.00   0.00   0.00
    21   8     0.00   0.00   0.00     0.00   0.00   0.00     0.00   0.00   0.00
    22   8     0.00   0.00   0.00     0.00   0.00   0.00     0.00   0.00   0.00
    23   8     0.00   0.00   0.00     0.00   0.00   0.00     0.00   0.00   0.00
    24   6     0.00   0.00   0.00     0.00   0.00   0.00     0.00   0.00   0.00
    25   6    -0.01  -0.01   0.00    -0.03  -0.02   0.00    -0.03  -0.01   0.00
    26   6    -0.01   0.03   0.00     0.00   0.00   0.00     0.01  -0.01   0.00
    27   1     0.47  -0.14   0.00     0.00   0.00   0.00    -0.16   0.05   0.00
    28   1    -0.15  -0.11  -0.26     0.00   0.00   0.00     0.05   0.04   0.09
    29   1    -0.15  -0.11   0.26     0.00   0.00   0.00     0.05   0.04  -0.09
    30   1     0.05   0.16   0.00     0.15   0.50   0.00     0.14   0.47   0.00
    31   1     0.04  -0.05   0.09     0.11  -0.16   0.28     0.11  -0.15   0.26
    32   1     0.04  -0.05  -0.09     0.11  -0.16  -0.28     0.11  -0.15  -0.26
    33   1     0.00   0.00   0.00     0.00   0.00   0.00     0.00   0.00   0.00
    34   1     0.00   0.00   0.00     0.00   0.00   0.00     0.00   0.00   0.00
    35   1     0.00   0.00   0.00     0.00   0.00   0.00     0.00   0.00   0.00
    36   1     0.00   0.00   0.00     0.00   0.00   0.00     0.00   0.00   0.00
                    91                     92                     93
                    AG                     BU                     BU
 Frequencies --  3080.4624              3080.4841              3080.7122
 Red. masses --     1.0944                 1.0943                 1.0944
 Frc consts  --     6.1184                 6.1184                 6.1196
 IR Inten    --     0.0000                25.3170                25.0751
  Atom  AN      X      Y      Z        X      Y      Z        X      Y      Z
     1   6     0.00   0.00   0.00     0.00   0.00   0.00     0.00   0.00   0.00
     2   6    -0.06  -0.01   0.00    -0.06  -0.01   0.00     0.00   0.00   0.00
     3   6     0.00   0.00   0.00     0.00   0.00   0.00     0.00   0.00   0.00
     4   6     0.00   0.02   0.00     0.00   0.00   0.00     0.01  -0.06   0.00
     5   1     0.41  -0.13   0.00     0.44  -0.14   0.00     0.00   0.00   0.00
     6   1     0.14   0.12   0.29     0.15   0.13   0.31     0.00   0.00   0.00
     7   1     0.14   0.12  -0.29     0.15   0.13  -0.31     0.00   0.00   0.00
     8   1    -0.06  -0.18   0.00     0.00   0.00   0.00     0.14   0.44   0.00
     9   1     0.05  -0.06   0.13     0.00   0.00   0.00    -0.13   0.15  -0.31
    10   1     0.05  -0.06  -0.13     0.00   0.00   0.00    -0.13   0.15   0.31
    11   8     0.00   0.00   0.00     0.00   0.00   0.00     0.00   0.00   0.00
    12   8     0.00   0.00   0.00     0.00   0.00   0.00     0.00   0.00   0.00
    13   8     0.00   0.00   0.00     0.00   0.00   0.00     0.00   0.00   0.00
    14   8     0.00   0.00   0.00     0.00   0.00   0.00     0.00   0.00   0.00
    15   8     0.00   0.00   0.00     0.00   0.00   0.00     0.00   0.00   0.00
    16  45     0.00   0.00   0.00     0.00   0.00   0.00     0.00   0.00   0.00
    17  45     0.00   0.00   0.00     0.00   0.00   0.00     0.00   0.00   0.00
    18   8     0.00   0.00   0.00     0.00   0.00   0.00     0.00   0.00   0.00
    19   8     0.00   0.00   0.00     0.00   0.00   0.00     0.00   0.00   0.00
    20   6     0.00   0.00   0.00     0.00   0.00   0.00     0.00   0.00   0.00
    21   8     0.00   0.00   0.00     0.00   0.00   0.00     0.00   0.00   0.00
    22   8     0.00   0.00   0.00     0.00   0.00   0.00     0.00   0.00   0.00
    23   8     0.00   0.00   0.00     0.00   0.00   0.00     0.00   0.00   0.00
    24   6     0.00   0.00   0.00     0.00   0.00   0.00     0.00   0.00   0.00
    25   6     0.00  -0.02   0.00     0.00   0.00   0.00     0.01  -0.06   0.00
    26   6     0.06   0.01   0.00    -0.06  -0.01   0.00     0.00   0.00   0.00
    27   1    -0.41   0.13   0.00     0.44  -0.14   0.00     0.00   0.00   0.00
    28   1    -0.14  -0.12  -0.29     0.15   0.13   0.31     0.00   0.00   0.00
    29   1    -0.14  -0.12   0.29     0.15   0.13  -0.31     0.00   0.00   0.00
    30   1     0.06   0.18   0.00     0.00   0.00   0.00     0.14   0.44   0.00
    31   1    -0.05   0.06  -0.13     0.00   0.00   0.00    -0.13   0.15  -0.31
    32   1    -0.05   0.06   0.13     0.00   0.00   0.00    -0.13   0.15   0.31
    33   1     0.00   0.00   0.00     0.00   0.00   0.00     0.00   0.00   0.00
    34   1     0.00   0.00   0.00     0.00   0.00   0.00     0.00   0.00   0.00
    35   1     0.00   0.00   0.00     0.00   0.00   0.00     0.00   0.00   0.00
    36   1     0.00   0.00   0.00     0.00   0.00   0.00     0.00   0.00   0.00
                    94                     95                     96
                    AG                     BG                     AU
 Frequencies --  3080.8021              3117.9284              3117.9806
 Red. masses --     1.0944                 1.1023                 1.1023
 Frc consts  --     6.1199                 6.3138                 6.3137
 IR Inten    --     0.0000                 0.0000                 5.9027
  Atom  AN      X      Y      Z        X      Y      Z        X      Y      Z
     1   6     0.00   0.00   0.00     0.00   0.00   0.00     0.00   0.00   0.00
     2   6    -0.02   0.00   0.00     0.00   0.00   0.00     0.00   0.00   0.03
     3   6     0.00   0.00   0.00     0.00   0.00   0.00     0.00   0.00   0.00
     4   6     0.01  -0.06   0.00     0.00   0.00  -0.07     0.00   0.00  -0.06
     5   1     0.18  -0.06   0.00     0.00   0.00   0.00     0.00   0.00   0.01
     6   1     0.06   0.05   0.13     0.00   0.00   0.00    -0.09  -0.07  -0.16
     7   1     0.06   0.05  -0.13     0.00   0.00   0.00     0.09   0.07  -0.16
     8   1     0.13   0.41   0.00     0.00   0.00  -0.02     0.00   0.00  -0.02
     9   1    -0.12   0.14  -0.29     0.18  -0.23   0.41     0.17  -0.21   0.37
    10   1    -0.12   0.14   0.29    -0.18   0.23   0.41    -0.17   0.21   0.37
    11   8     0.00   0.00   0.00     0.00   0.00   0.00     0.00   0.00   0.00
    12   8     0.00   0.00   0.00     0.00   0.00   0.00     0.00   0.00   0.00
    13   8     0.00   0.00   0.00     0.00   0.00   0.00     0.00   0.00   0.00
    14   8     0.00   0.00   0.00     0.00   0.00   0.00     0.00   0.00   0.00
    15   8     0.00   0.00   0.00     0.00   0.00   0.00     0.00   0.00   0.00
    16  45     0.00   0.00   0.00     0.00   0.00   0.00     0.00   0.00   0.00
    17  45     0.00   0.00   0.00     0.00   0.00   0.00     0.00   0.00   0.00
    18   8     0.00   0.00   0.00     0.00   0.00   0.00     0.00   0.00   0.00
    19   8     0.00   0.00   0.00     0.00   0.00   0.00     0.00   0.00   0.00
    20   6     0.00   0.00   0.00     0.00   0.00   0.00     0.00   0.00   0.00
    21   8     0.00   0.00   0.00     0.00   0.00   0.00     0.00   0.00   0.00
    22   8     0.00   0.00   0.00     0.00   0.00   0.00     0.00   0.00   0.00
    23   8     0.00   0.00   0.00     0.00   0.00   0.00     0.00   0.00   0.00
    24   6     0.00   0.00   0.00     0.00   0.00   0.00     0.00   0.00   0.00
    25   6    -0.01   0.06   0.00     0.00   0.00   0.07     0.00   0.00  -0.06
    26   6     0.02   0.00   0.00     0.00   0.00   0.00     0.00   0.00   0.03
    27   1    -0.18   0.06   0.00     0.00   0.00   0.00     0.00   0.00   0.01
    28   1    -0.06  -0.05  -0.13     0.00   0.00   0.00    -0.09  -0.07  -0.16
    29   1    -0.06  -0.05   0.13     0.00   0.00   0.00     0.09   0.07  -0.16
    30   1    -0.13  -0.41   0.00     0.00   0.00   0.02     0.00   0.00  -0.02
    31   1     0.12  -0.14   0.29    -0.18   0.23  -0.41     0.17  -0.21   0.37
    32   1     0.12  -0.14  -0.29     0.18  -0.23  -0.41    -0.17   0.21   0.37
    33   1     0.00   0.00   0.00     0.00   0.00   0.00     0.00   0.00   0.00
    34   1     0.00   0.00   0.00     0.00   0.00   0.00     0.00   0.00   0.00
    35   1     0.00   0.00   0.00     0.00   0.00   0.00     0.00   0.00   0.00
    36   1     0.00   0.00   0.00     0.00   0.00   0.00     0.00   0.00   0.00
                    97                     98                     99
                    BG                     AU                     AU
 Frequencies --  3118.1182              3118.2549              3609.7577
 Red. masses --     1.1024                 1.1023                 1.0355
 Frc consts  --     6.3150                 6.3150                 7.9495
 IR Inten    --     0.0000                35.2099                 2.0969
  Atom  AN      X      Y      Z        X      Y      Z        X      Y      Z
     1   6     0.00   0.00   0.00     0.00   0.00   0.00     0.00   0.00   0.00
     2   6     0.00   0.00  -0.07     0.00   0.00   0.06     0.00   0.00   0.00
     3   6     0.00   0.00   0.00     0.00   0.00   0.00     0.00   0.00   0.00
     4   6     0.00   0.00   0.00     0.00   0.00   0.03     0.00   0.00   0.00
     5   1     0.00   0.00  -0.02     0.00   0.00   0.02     0.00   0.00   0.00
     6   1     0.23   0.18   0.41    -0.21  -0.17  -0.37     0.00   0.00   0.00
     7   1    -0.23  -0.18   0.41     0.21   0.17  -0.37     0.00   0.00   0.00
     8   1     0.00   0.00   0.00     0.00   0.00   0.01     0.00   0.00   0.00
     9   1     0.00   0.00   0.00    -0.07   0.09  -0.16     0.00   0.00   0.00
    10   1     0.00   0.00   0.00     0.07  -0.09  -0.16     0.00   0.00   0.00
    11   8     0.00   0.00   0.00     0.00   0.00   0.00     0.00   0.00   0.00
    12   8     0.00   0.00   0.00     0.00   0.00   0.00     0.00   0.00   0.00
    13   8     0.00   0.00   0.00     0.00   0.00   0.00     0.00   0.00   0.00
    14   8     0.00   0.00   0.00     0.00   0.00   0.00     0.00   0.00   0.00
    15   8     0.00   0.00   0.00     0.00   0.00   0.00     0.00   0.00   0.03
    16  45     0.00   0.00   0.00     0.00   0.00   0.00     0.00   0.00   0.00
    17  45     0.00   0.00   0.00     0.00   0.00   0.00     0.00   0.00   0.00
    18   8     0.00   0.00   0.00     0.00   0.00   0.00     0.00   0.00   0.00
    19   8     0.00   0.00   0.00     0.00   0.00   0.00     0.00   0.00   0.00
    20   6     0.00   0.00   0.00     0.00   0.00   0.00     0.00   0.00   0.00
    21   8     0.00   0.00   0.00     0.00   0.00   0.00     0.00   0.00   0.00
    22   8     0.00   0.00   0.00     0.00   0.00   0.00     0.00   0.00   0.00
    23   8     0.00   0.00   0.00     0.00   0.00   0.00     0.00   0.00   0.03
    24   6     0.00   0.00   0.00     0.00   0.00   0.00     0.00   0.00   0.00
    25   6     0.00   0.00   0.00     0.00   0.00   0.03     0.00   0.00   0.00
    26   6     0.00   0.00   0.07     0.00   0.00   0.06     0.00   0.00   0.00
    27   1     0.00   0.00   0.02     0.00   0.00   0.02     0.00   0.00   0.00
    28   1    -0.23  -0.18  -0.41    -0.21  -0.17  -0.37     0.00   0.00   0.00
    29   1     0.23   0.18  -0.41     0.21   0.17  -0.37     0.00   0.00   0.00
    30   1     0.00   0.00   0.00     0.00   0.00   0.01     0.00   0.00   0.00
    31   1     0.00   0.00   0.00    -0.07   0.09  -0.16     0.00   0.00   0.00
    32   1     0.00   0.00   0.00     0.07  -0.09  -0.16     0.00   0.00   0.00
    33   1     0.00   0.00   0.00     0.00   0.00   0.00     0.44   0.00  -0.24
    34   1     0.00   0.00   0.00     0.00   0.00   0.00    -0.44   0.00  -0.24
    35   1     0.00   0.00   0.00     0.00   0.00   0.00     0.44   0.00  -0.24
    36   1     0.00   0.00   0.00     0.00   0.00   0.00    -0.44   0.00  -0.24
                   100                    101                    102
                    AG                     BU                     BG
 Frequencies --  3609.8587              3794.8638              3794.9639
 Red. masses --     1.0354                 1.0904                 1.0903
 Frc consts  --     7.9494                 9.2515                 9.2511
 IR Inten    --     0.0000               133.1733                 0.0000
  Atom  AN      X      Y      Z        X      Y      Z        X      Y      Z
     1   6     0.00   0.00   0.00     0.00   0.00   0.00     0.00   0.00   0.00
     2   6     0.00   0.00   0.00     0.00   0.00   0.00     0.00   0.00   0.00
     3   6     0.00   0.00   0.00     0.00   0.00   0.00     0.00   0.00   0.00
     4   6     0.00   0.00   0.00     0.00   0.00   0.00     0.00   0.00   0.00
     5   1     0.00   0.00   0.00     0.00   0.00   0.00     0.00   0.00   0.00
     6   1     0.00   0.00   0.00     0.00   0.00   0.00     0.00   0.00   0.00
     7   1     0.00   0.00   0.00     0.00   0.00   0.00     0.00   0.00   0.00
     8   1     0.00   0.00   0.00     0.00   0.00   0.00     0.00   0.00   0.00
     9   1     0.00   0.00   0.00     0.00   0.00   0.00     0.00   0.00   0.00
    10   1     0.00   0.00   0.00     0.00   0.00   0.00     0.00   0.00   0.00
    11   8     0.00   0.00   0.00     0.00   0.00   0.00     0.00   0.00   0.00
    12   8     0.00   0.00   0.00     0.00   0.00   0.00     0.00   0.00   0.00
    13   8     0.00   0.00   0.00     0.00   0.00   0.00     0.00   0.00   0.00
    14   8     0.00   0.00   0.00     0.00   0.00   0.00     0.00   0.00   0.00
    15   8     0.00   0.00   0.03    -0.05   0.00   0.00     0.05   0.00   0.00
    16  45     0.00   0.00   0.00     0.00   0.00   0.00     0.00   0.00   0.00
    17  45     0.00   0.00   0.00     0.00   0.00   0.00     0.00   0.00   0.00
    18   8     0.00   0.00   0.00     0.00   0.00   0.00     0.00   0.00   0.00
    19   8     0.00   0.00   0.00     0.00   0.00   0.00     0.00   0.00   0.00
    20   6     0.00   0.00   0.00     0.00   0.00   0.00     0.00   0.00   0.00
    21   8     0.00   0.00   0.00     0.00   0.00   0.00     0.00   0.00   0.00
    22   8     0.00   0.00   0.00     0.00   0.00   0.00     0.00   0.00   0.00
    23   8     0.00   0.00  -0.03    -0.05   0.00   0.00    -0.05   0.00   0.00
    24   6     0.00   0.00   0.00     0.00   0.00   0.00     0.00   0.00   0.00
    25   6     0.00   0.00   0.00     0.00   0.00   0.00     0.00   0.00   0.00
    26   6     0.00   0.00   0.00     0.00   0.00   0.00     0.00   0.00   0.00
    27   1     0.00   0.00   0.00     0.00   0.00   0.00     0.00   0.00   0.00
    28   1     0.00   0.00   0.00     0.00   0.00   0.00     0.00   0.00   0.00
    29   1     0.00   0.00   0.00     0.00   0.00   0.00     0.00   0.00   0.00
    30   1     0.00   0.00   0.00     0.00   0.00   0.00     0.00   0.00   0.00
    31   1     0.00   0.00   0.00     0.00   0.00   0.00     0.00   0.00   0.00
    32   1     0.00   0.00   0.00     0.00   0.00   0.00     0.00   0.00   0.00
    33   1    -0.44   0.00   0.24     0.42   0.00  -0.27     0.42   0.00  -0.27
    34   1     0.44   0.00   0.24     0.42   0.00   0.27     0.42   0.00   0.27
    35   1     0.44   0.00  -0.24     0.42   0.00  -0.27    -0.42   0.00   0.27
    36   1    -0.44   0.00  -0.24     0.42   0.00   0.27    -0.42   0.00  -0.27

 -------------------
 - Thermochemistry -
 -------------------
 Temperature   298.150 Kelvin.  Pressure   1.00000 Atm.
 Atom     1 has atomic number  6 and mass  12.00000
 Atom     2 has atomic number  6 and mass  12.00000
 Atom     3 has atomic number  6 and mass  12.00000
 Atom     4 has atomic number  6 and mass  12.00000
 Atom     5 has atomic number  1 and mass   1.00783
 Atom     6 has atomic number  1 and mass   1.00783
 Atom     7 has atomic number  1 and mass   1.00783
 Atom     8 has atomic number  1 and mass   1.00783
 Atom     9 has atomic number  1 and mass   1.00783
 Atom    10 has atomic number  1 and mass   1.00783
 Atom    11 has atomic number  8 and mass  15.99491
 Atom    12 has atomic number  8 and mass  15.99491
 Atom    13 has atomic number  8 and mass  15.99491
 Atom    14 has atomic number  8 and mass  15.99491
 Atom    15 has atomic number  8 and mass  15.99491
 Atom    16 has atomic number 45 and mass 102.90480
 Atom    17 has atomic number 45 and mass 102.90480
 Atom    18 has atomic number  8 and mass  15.99491
 Atom    19 has atomic number  8 and mass  15.99491
 Atom    20 has atomic number  6 and mass  12.00000
 Atom    21 has atomic number  8 and mass  15.99491
 Atom    22 has atomic number  8 and mass  15.99491
 Atom    23 has atomic number  8 and mass  15.99491
 Atom    24 has atomic number  6 and mass  12.00000
 Atom    25 has atomic number  6 and mass  12.00000
 Atom    26 has atomic number  6 and mass  12.00000
 Atom    27 has atomic number  1 and mass   1.00783
 Atom    28 has atomic number  1 and mass   1.00783
 Atom    29 has atomic number  1 and mass   1.00783
 Atom    30 has atomic number  1 and mass   1.00783
 Atom    31 has atomic number  1 and mass   1.00783
 Atom    32 has atomic number  1 and mass   1.00783
 Atom    33 has atomic number  1 and mass   1.00783
 Atom    34 has atomic number  1 and mass   1.00783
 Atom    35 has atomic number  1 and mass   1.00783
 Atom    36 has atomic number  1 and mass   1.00783
 Molecular mass:   477.88395 amu.
 Principal axes and moments of inertia in atomic units:
                           1         2         3
     Eigenvalues --  6957.578736967.812837157.82579
           X            0.99580  -0.09153   0.00000
           Y            0.09153   0.99580   0.00000
           Z            0.00000   0.00000   1.00000
 This molecule is an asymmetric top.
 Rotational symmetry number  2.
 Warning -- assumption of classical behavior for rotation
           may cause significant error
 Rotational temperatures (Kelvin)      0.01245     0.01243     0.01210
 Rotational constants (GHZ):           0.25939     0.25901     0.25214
    2 imaginary frequencies ignored.
 Zero-point vibrational energy     652666.4 (Joules/Mol)
                                  155.99102 (Kcal/Mol)
 Warning -- explicit consideration of  46 degrees of freedom as
           vibrations may cause significant error
 Vibrational temperatures:     45.21    47.23    48.05    49.76    82.62
          (Kelvin)             85.78    93.16    93.52    93.58    98.20
                               99.72   105.51   140.17   153.86   175.64
                              183.10   226.61   229.04   240.12   291.00
                              304.81   333.17   335.50   343.07   344.99
                              349.75   361.45   394.16   403.16   407.06
                              440.95   449.45   477.19   509.37   520.87
                              532.63   656.81   663.27   796.66   798.61
                              800.20   807.90   808.63   825.03   830.40
                              832.12   950.50   950.81   979.29   991.40
                             1282.13  1282.98  1296.02  1299.98  1459.12
                             1459.23  1461.76  1462.42  1500.43  1502.45
                             1502.58  1502.87  1923.08  1924.19  1925.65
                             1940.08  1983.91  1983.94  1984.28  1985.45
                             1986.60  1986.73  2032.99  2070.73  2097.82
                             2097.97  2098.75  2099.19  2107.94  2108.25
                             2120.78  2159.90  2199.68  2202.18  4299.93
                             4300.05  4300.19  4300.37  4432.09  4432.12
                             4432.45  4432.58  4486.00  4486.07  4486.27
                             4486.47  5193.63  5193.78  5459.96  5460.10
 
 Zero-point correction=                           0.248588 (Hartree/Particle)
 Thermal correction to Energy=                    0.276822
 Thermal correction to Enthalpy=                  0.277766
 Thermal correction to Gibbs Free Energy=         0.187416
 Sum of electronic and zero-point Energies=          -1285.857739
 Sum of electronic and thermal Energies=             -1285.829505
 Sum of electronic and thermal Enthalpies=           -1285.828561
 Sum of electronic and thermal Free Energies=        -1285.918911
 
                     E (Thermal)             CV                S
                      KCal/Mol        Cal/Mol-Kelvin    Cal/Mol-Kelvin
 Total                  173.708             94.193            190.157
 Electronic               0.000              0.000              0.000
 Translational            0.889              2.981             44.381
 Rotational               0.889              2.981             32.828
 Vibrational            171.931             88.232            112.948
 Vibration     1          0.594              1.983              5.738
 Vibration     2          0.594              1.983              5.651
 Vibration     3          0.594              1.983              5.617
 Vibration     4          0.594              1.983              5.547
 Vibration     5          0.596              1.975              4.544
 Vibration     6          0.597              1.974              4.470
 Vibration     7          0.597              1.971              4.307
 Vibration     8          0.597              1.971              4.299
 Vibration     9          0.597              1.971              4.298
 Vibration    10          0.598              1.969              4.203
 Vibration    11          0.598              1.969              4.173
 Vibration    12          0.599              1.967              4.062
 Vibration    13          0.603              1.951              3.505
 Vibration    14          0.606              1.944              3.324
 Vibration    15          0.610              1.931              3.067
 Vibration    16          0.611              1.926              2.987
 Vibration    17          0.621              1.894              2.580
 Vibration    18          0.621              1.892              2.559
 Vibration    19          0.624              1.883              2.470
 Vibration    20          0.639              1.837              2.112
 Vibration    21          0.643              1.823              2.028
 Vibration    22          0.653              1.793              1.867
 Vibration    23          0.654              1.790              1.854
 Vibration    24          0.656              1.782              1.814
 Vibration    25          0.657              1.780              1.804
 Vibration    26          0.659              1.774              1.780
 Vibration    27          0.663              1.761              1.722
 Vibration    28          0.676              1.721              1.571
 Vibration    29          0.680              1.710              1.532
 Vibration    30          0.682              1.705              1.516
 Vibration    31          0.697              1.661              1.381
 Vibration    32          0.701              1.650              1.350
 Vibration    33          0.714              1.612              1.252
 Vibration    34          0.730              1.567              1.148
 Vibration    35          0.736              1.550              1.113
 Vibration    36          0.742              1.533              1.079
 Vibration    37          0.815              1.347              0.776
 Vibration    38          0.819              1.337              0.763
 Vibration    39          0.909              1.132              0.537
 Vibration    40          0.911              1.129              0.534
 Vibration    41          0.912              1.126              0.532
 Vibration    42          0.917              1.115              0.521
 Vibration    43          0.918              1.113              0.520
 Vibration    44          0.930              1.089              0.498
 Vibration    45          0.934              1.081              0.491
 Vibration    46          0.935              1.078              0.488
                       Q            Log10(Q)             Ln(Q)
 Total Bot       0.623312D-86        -86.205295       -198.495027
 Total V=0       0.137018D+29         28.136779         64.787327
 Vib (Bot)       0.455284-101       -101.341718       -233.347929
 Vib (Bot)    1  0.658869D+01          0.818799          1.885355
 Vib (Bot)    2  0.630650D+01          0.799788          1.841581
 Vib (Bot)    3  0.619822D+01          0.792267          1.824262
 Vib (Bot)    4  0.598450D+01          0.777028          1.789172
 Vib (Bot)    5  0.359738D+01          0.555987          1.280207
 Vib (Bot)    6  0.346367D+01          0.539536          1.242328
 Vib (Bot)    7  0.318725D+01          0.503417          1.159160
 Vib (Bot)    8  0.317497D+01          0.501739          1.155297
 Vib (Bot)    9  0.317298D+01          0.501468          1.154672
 Vib (Bot)   10  0.302258D+01          0.480378          1.106111
 Vib (Bot)   11  0.297585D+01          0.473610          1.090528
 Vib (Bot)   12  0.281112D+01          0.448879          1.033583
 Vib (Bot)   13  0.210767D+01          0.323802          0.745582
 Vib (Bot)   14  0.191649D+01          0.282506          0.650493
 Vib (Bot)   15  0.167319D+01          0.223545          0.514731
 Vib (Bot)   16  0.160307D+01          0.204953          0.471923
 Vib (Bot)   17  0.128458D+01          0.108761          0.250430
 Vib (Bot)   18  0.127026D+01          0.103893          0.239222
 Vib (Bot)   19  0.120872D+01          0.082325          0.189561
 Vib (Bot)   20  0.984992D+00         -0.006567         -0.015122
 Vib (Bot)   21  0.936802D+00         -0.028352         -0.065283
 Vib (Bot)   22  0.849964D+00         -0.070599         -0.162561
 Vib (Bot)   23  0.843455D+00         -0.073938         -0.170249
 Vib (Bot)   24  0.822897D+00         -0.084654         -0.194924
 Vib (Bot)   25  0.817821D+00         -0.087342         -0.201112
 Vib (Bot)   26  0.805487D+00         -0.093941         -0.216308
 Vib (Bot)   27  0.776455D+00         -0.109884         -0.253017
 Vib (Bot)   28  0.704017D+00         -0.152417         -0.350953
 Vib (Bot)   29  0.686054D+00         -0.163642         -0.376799
 Vib (Bot)   30  0.678507D+00         -0.168446         -0.387861
 Vib (Bot)   31  0.618240D+00         -0.208843         -0.480878
 Vib (Bot)   32  0.604477D+00         -0.218620         -0.503392
 Vib (Bot)   33  0.562782D+00         -0.249660         -0.574864
 Vib (Bot)   34  0.519766D+00         -0.284192         -0.654376
 Vib (Bot)   35  0.505608D+00         -0.296186         -0.681993
 Vib (Bot)   36  0.491724D+00         -0.308279         -0.709838
 Vib (Bot)   37  0.373660D+00         -0.427524         -0.984410
 Vib (Bot)   38  0.368652D+00         -0.433384         -0.997903
 Vib (Bot)   39  0.282414D+00         -0.549114         -1.264383
 Vib (Bot)   40  0.281353D+00         -0.550749         -1.268146
 Vib (Bot)   41  0.280497D+00         -0.552072         -1.271193
 Vib (Bot)   42  0.276379D+00         -0.558494         -1.285981
 Vib (Bot)   43  0.275992D+00         -0.559103         -1.287383
 Vib (Bot)   44  0.267487D+00         -0.572698         -1.318685
 Vib (Bot)   45  0.264772D+00         -0.577127         -1.328885
 Vib (Bot)   46  0.263912D+00         -0.578541         -1.332141
 Vib (V=0)       0.100082D+14         13.000356         29.934425
 Vib (V=0)    1  0.710764D+01          0.851725          1.961170
 Vib (V=0)    2  0.682629D+01          0.834185          1.920781
 Vib (V=0)    3  0.671835D+01          0.827263          1.904843
 Vib (V=0)    4  0.650535D+01          0.813271          1.872625
 Vib (V=0)    5  0.413197D+01          0.616157          1.418753
 Vib (V=0)    6  0.399957D+01          0.602013          1.386187
 Vib (V=0)    7  0.372623D+01          0.571270          1.315398
 Vib (V=0)    8  0.371410D+01          0.569853          1.312135
 Vib (V=0)    9  0.371214D+01          0.569624          1.311607
 Vib (V=0)   10  0.356366D+01          0.551896          1.270787
 Vib (V=0)   11  0.351756D+01          0.546241          1.257767
 Vib (V=0)   12  0.335524D+01          0.525723          1.210523
 Vib (V=0)   13  0.266616D+01          0.425887          0.980640
 Vib (V=0)   14  0.248064D+01          0.394563          0.908515
 Vib (V=0)   15  0.224630D+01          0.351467          0.809284
 Vib (V=0)   16  0.217924D+01          0.338305          0.778976
 Vib (V=0)   17  0.187846D+01          0.273801          0.630450
 Vib (V=0)   18  0.186512D+01          0.270708          0.623327
 Vib (V=0)   19  0.180805D+01          0.257211          0.592250
 Vib (V=0)   20  0.160463D+01          0.205375          0.472893
 Vib (V=0)   21  0.156188D+01          0.193649          0.445893
 Vib (V=0)   22  0.148612D+01          0.172055          0.396171
 Vib (V=0)   23  0.148052D+01          0.170414          0.392392
 Vib (V=0)   24  0.146289D+01          0.165212          0.380415
 Vib (V=0)   25  0.145856D+01          0.163923          0.377447
 Vib (V=0)   26  0.144806D+01          0.160785          0.370222
 Vib (V=0)   27  0.142352D+01          0.153362          0.353130
 Vib (V=0)   28  0.136350D+01          0.134656          0.310058
 Vib (V=0)   29  0.134892D+01          0.129987          0.299306
 Vib (V=0)   30  0.134284D+01          0.128023          0.294783
 Vib (V=0)   31  0.129512D+01          0.112311          0.258606
 Vib (V=0)   32  0.128447D+01          0.108724          0.250346
 Vib (V=0)   33  0.125281D+01          0.097885          0.225389
 Vib (V=0)   34  0.122122D+01          0.086794          0.199850
 Vib (V=0)   35  0.121108D+01          0.083174          0.191515
 Vib (V=0)   36  0.120128D+01          0.079644          0.183387
 Vib (V=0)   37  0.112420D+01          0.050842          0.117069
 Vib (V=0)   38  0.112121D+01          0.049688          0.114410
 Vib (V=0)   39  0.107425D+01          0.031103          0.071618
 Vib (V=0)   40  0.107372D+01          0.030893          0.071133
 Vib (V=0)   41  0.107330D+01          0.030723          0.070742
 Vib (V=0)   42  0.107130D+01          0.029912          0.068874
 Vib (V=0)   43  0.107111D+01          0.029836          0.068700
 Vib (V=0)   44  0.106705D+01          0.028186          0.064901
 Vib (V=0)   45  0.106578D+01          0.027667          0.063705
 Vib (V=0)   46  0.106538D+01          0.027503          0.063327
 Electronic      0.100000D+01          0.000000          0.000000
 Translational   0.410619D+09          8.613439         19.833176
 Rotational      0.333414D+07          6.522984         15.019726
 ***** Axes restored to original set *****
 -------------------------------------------------------------------
 Center     Atomic                   Forces (Hartrees/Bohr)
 Number     Number              X              Y              Z
 -------------------------------------------------------------------
      1        6           0.000000218    0.000000048    0.000000000
      2        6          -0.000000068   -0.000000029    0.000000000
      3        6          -0.000000076   -0.000000154    0.000000000
      4        6          -0.000000084   -0.000000035    0.000000000
      5        1           0.000000073    0.000000042    0.000000000
      6        1           0.000000073   -0.000000005    0.000000025
      7        1           0.000000073   -0.000000005   -0.000000025
      8        1           0.000000067   -0.000000010    0.000000000
      9        1           0.000000019   -0.000000072    0.000000046
     10        1           0.000000019   -0.000000072   -0.000000046
     11        8          -0.000000021   -0.000000010   -0.000000073
     12        8          -0.000000021   -0.000000010    0.000000073
     13        8           0.000000039    0.000000024    0.000000118
     14        8          -0.000000039   -0.000000024    0.000000118
     15        8           0.000000000    0.000000000   -0.000000051
     16       45           0.000000000    0.000000000   -0.000000046
     17       45           0.000000000    0.000000000    0.000000046
     18        8           0.000000021    0.000000010   -0.000000073
     19        8           0.000000039    0.000000024   -0.000000118
     20        6           0.000000076    0.000000154    0.000000000
     21        8           0.000000021    0.000000010    0.000000073
     22        8          -0.000000039   -0.000000024   -0.000000118
     23        8           0.000000000    0.000000000    0.000000051
     24        6          -0.000000218   -0.000000048    0.000000000
     25        6           0.000000084    0.000000035    0.000000000
     26        6           0.000000068    0.000000029    0.000000000
     27        1          -0.000000073   -0.000000042    0.000000000
     28        1          -0.000000073    0.000000005   -0.000000025
     29        1          -0.000000073    0.000000005    0.000000025
     30        1          -0.000000067    0.000000010    0.000000000
     31        1          -0.000000019    0.000000072   -0.000000046
     32        1          -0.000000019    0.000000072    0.000000046
     33        1          -0.000000005    0.000000012   -0.000000024
     34        1           0.000000005   -0.000000012   -0.000000024
     35        1           0.000000005   -0.000000012    0.000000024
     36        1          -0.000000005    0.000000012    0.000000024
 -------------------------------------------------------------------
 Cartesian Forces:  Max     0.000000218 RMS     0.000000058

 GradGradGradGradGradGradGradGradGradGradGradGradGradGradGradGradGradGrad
 Berny optimization.
 Internal  Forces:  Max     0.000000091 RMS     0.000000022
 Search for a local minimum.
 Step number   1 out of a maximum of    2
 All quantities printed in internal units (Hartrees-Bohrs-Radians)
 Second derivative matrix not updated -- analytic derivatives used.
     Eigenvalues ---   -0.00099  -0.00095   0.00003   0.00006   0.00007
     Eigenvalues ---    0.00008   0.00008   0.00009   0.00094   0.00639
     Eigenvalues ---    0.00712   0.00713   0.00787   0.00880   0.00884
     Eigenvalues ---    0.00952   0.01104   0.01129   0.02238   0.02488
     Eigenvalues ---    0.02845   0.02906   0.02925   0.02968   0.02973
     Eigenvalues ---    0.03698   0.03800   0.03837   0.03859   0.03975
     Eigenvalues ---    0.05000   0.05538   0.05546   0.05548   0.05548
     Eigenvalues ---    0.05652   0.05657   0.05657   0.05661   0.05932
     Eigenvalues ---    0.06608   0.07800   0.07898   0.07975   0.08891
     Eigenvalues ---    0.09291   0.09387   0.09755   0.09800   0.10762
     Eigenvalues ---    0.11012   0.11544   0.11980   0.12210   0.12218
     Eigenvalues ---    0.12235   0.12346   0.12867   0.12875   0.12881
     Eigenvalues ---    0.12881   0.12908   0.13920   0.13941   0.13946
     Eigenvalues ---    0.13954   0.18863   0.18927   0.19424   0.19426
     Eigenvalues ---    0.19501   0.20049   0.20180   0.21065   0.29576
     Eigenvalues ---    0.29635   0.29682   0.30322   0.32743   0.32745
     Eigenvalues ---    0.32747   0.32749   0.33687   0.33688   0.33691
     Eigenvalues ---    0.33692   0.33876   0.33878   0.33914   0.33958
     Eigenvalues ---    0.41607   0.41762   0.42428   0.44679   0.46245
     Eigenvalues ---    0.47194   0.47452   0.48376   0.48377   0.49090
     Eigenvalues ---    0.50503   0.505131000.000001000.000001000.00000
     Eigenvalues --- 1000.000001000.000001000.000001000.000001000.00000
     Eigenvalues --- 1000.000001000.000001000.000001000.000001000.00000
     Eigenvalues --- 1000.000001000.000001000.000001000.000001000.00000
     Eigenvalues --- 1000.000001000.000001000.000001000.000001000.00000
     Eigenvalues --- 1000.000001000.000001000.000001000.000001000.00000
     Eigenvalues --- 1000.000001000.000001000.000001000.000001000.00000
     Eigenvalues --- 1000.000001000.000001000.000001000.000001000.00000
     Eigenvalues --- 1000.000001000.000001000.000001000.000001000.00000
     Eigenvalues --- 1000.000001000.000001000.000001000.000001000.00000
     Eigenvalues --- 1000.000001000.000001000.000001000.000001000.00000
     Eigenvalues --- 1000.000001000.000001000.000001000.000001000.00000
     Eigenvalues --- 1000.000001000.000001000.000001000.000001000.00000
     Eigenvalues --- 1000.000001000.000001000.000001000.000001000.00000
     Eigenvalues --- 1000.000001000.000001000.000001000.000001000.00000
     Eigenvalues --- 1000.000001000.000001000.000001000.000001000.00000
     Eigenvalues --- 1000.000001000.000001000.000001000.000001000.00000
     Eigenvalues --- 1000.000001000.000001000.000001000.000001000.00000
     Eigenvalues --- 1000.000001000.000001000.000001000.000001000.00000
     Eigenvalues --- 1000.000001000.000001000.000001000.000001000.00000
     Eigenvalues --- 1000.000001000.000001000.000001000.000001000.00000
     Eigenvalues --- 1000.000001000.000001000.000001000.000001000.00000
     Eigenvalues --- 1000.000001000.000001000.000001000.000001000.00000
     Eigenvalues --- 1000.000001000.000001000.000001000.000001000.00000
     Eigenvalues --- 1000.000001000.000001000.000001000.000001000.00000
     Eigenvalues --- 1000.000001000.000001000.000001000.000001000.00000
     Eigenvalues --- 1000.000001000.000001000.000001000.000001000.00000
     Eigenvalues --- 1000.000001000.000001000.000001000.000001000.00000
 Eigenvalue     1 is  -9.92D-04 should be greater than     0.000000 Eigenvector:
                          D59       D58       D46       D43      D104
   1                   -0.31576   0.31576  -0.16029   0.16029  -0.16029
                         D109       D56       D50       D85       D84
   1                    0.16029  -0.15925   0.15925  -0.15925   0.15925
 Eigenvalue     2 is  -9.47D-04 should be greater than     0.000000 Eigenvector:
                          D60       D57      D104      D109       D46
   1                   -0.31406   0.31406   0.16030  -0.16030  -0.16030
                          D43       D83       D86       D54       D52
   1                    0.16030   0.15948  -0.15948  -0.15948   0.15948
 Angle between quadratic step and forces=  84.38 degrees.
 Linear search not attempted -- first point.
 Iteration  1 RMS(Cart)=  0.00000099 RMS(Int)=  0.00000000
 ClnCor:  largest displacement from symmetrization is 5.27D-10 for atom    10.
 Variable       Old X    -DE/DX   Delta X   Delta X   Delta X     New X
                                 (Linear)    (Quad)   (Total)
    R1        2.87099   0.00000   0.00000   0.00000   0.00000   2.87099
    R2        2.48369   0.00000   0.00000   0.00000   0.00000   2.48369
    R3        2.48369   0.00000   0.00000   0.00000   0.00000   2.48369
    R4        2.09050   0.00000   0.00000   0.00000   0.00000   2.09050
    R5        2.08185   0.00000   0.00000   0.00000   0.00000   2.08185
    R6        2.08185   0.00000   0.00000   0.00000   0.00000   2.08185
    R7        2.87039   0.00000   0.00000   0.00000   0.00000   2.87039
    R8        2.48397   0.00000   0.00000   0.00000   0.00000   2.48397
    R9        2.48397   0.00000   0.00000   0.00000   0.00000   2.48397
   R10        2.09048   0.00000   0.00000   0.00000   0.00000   2.09048
   R11        2.08183   0.00000   0.00000   0.00000   0.00000   2.08183
   R12        2.08183   0.00000   0.00000   0.00000   0.00000   2.08183
   R13        3.92528   0.00000   0.00000   0.00000   0.00000   3.92528
   R14        3.92528   0.00000   0.00000   0.00000   0.00000   3.92528
   R15        3.92426   0.00000   0.00000   0.00000   0.00000   3.92426
   R16        3.92426   0.00000   0.00000   0.00000   0.00000   3.92426
   R17        2.48397   0.00000   0.00000   0.00000   0.00000   2.48397
   R18        4.29929   0.00000   0.00000   0.00000   0.00000   4.29929
   R19        1.85491   0.00000   0.00000   0.00000   0.00000   1.85491
   R20        1.85491   0.00000   0.00000   0.00000   0.00000   1.85491
   R21        4.63024   0.00000   0.00000   0.00000   0.00000   4.63025
   R22        3.92528   0.00000   0.00000   0.00000   0.00000   3.92528
   R23        3.92426   0.00000   0.00000   0.00000   0.00000   3.92426
   R24        3.92528   0.00000   0.00000   0.00000   0.00000   3.92528
   R25        3.92426   0.00000   0.00000   0.00000   0.00000   3.92426
   R26        4.29929   0.00000   0.00000   0.00000   0.00000   4.29929
   R27        2.48369   0.00000   0.00000   0.00000   0.00000   2.48369
   R28        2.48397   0.00000   0.00000   0.00000   0.00000   2.48397
   R29        2.87039   0.00000   0.00000   0.00000   0.00000   2.87039
   R30        2.48369   0.00000   0.00000   0.00000   0.00000   2.48369
   R31        1.85491   0.00000   0.00000   0.00000   0.00000   1.85491
   R32        1.85491   0.00000   0.00000   0.00000   0.00000   1.85491
   R33        2.87099   0.00000   0.00000   0.00000   0.00000   2.87099
   R34        2.09048   0.00000   0.00000   0.00000   0.00000   2.09048
   R35        2.08183   0.00000   0.00000   0.00000   0.00000   2.08183
   R36        2.08183   0.00000   0.00000   0.00000   0.00000   2.08183
   R37        2.09050   0.00000   0.00000   0.00000   0.00000   2.09050
   R38        2.08185   0.00000   0.00000   0.00000   0.00000   2.08185
   R39        2.08185   0.00000   0.00000   0.00000   0.00000   2.08185
    A1        2.04744   0.00000   0.00000   0.00000   0.00000   2.04744
    A2        2.04744   0.00000   0.00000   0.00000   0.00000   2.04744
    A3        2.18810   0.00000   0.00000   0.00000   0.00000   2.18810
    A4        1.90863   0.00000   0.00000   0.00000   0.00000   1.90863
    A5        1.92162   0.00000   0.00000   0.00000   0.00000   1.92162
    A6        1.92162   0.00000   0.00000   0.00000   0.00000   1.92162
    A7        1.88966   0.00000   0.00000   0.00000   0.00000   1.88966
    A8        1.88966   0.00000   0.00000   0.00000   0.00000   1.88966
    A9        1.93195   0.00000   0.00000   0.00000   0.00000   1.93195
   A10        2.04856   0.00000   0.00000   0.00000   0.00000   2.04856
   A11        2.04856   0.00000   0.00000   0.00000   0.00000   2.04856
   A12        2.18585   0.00000   0.00000   0.00000   0.00000   2.18585
   A13        1.90887   0.00000   0.00000   0.00000   0.00000   1.90887
   A14        1.92220   0.00000   0.00000   0.00000   0.00000   1.92220
   A15        1.92220   0.00000   0.00000   0.00000   0.00000   1.92220
   A16        1.88994   0.00000   0.00000   0.00000   0.00000   1.88994
   A17        1.88994   0.00000   0.00000   0.00000   0.00000   1.88994
   A18        1.93001   0.00000   0.00000   0.00000   0.00000   1.93001
   A19        2.07510   0.00000   0.00000   0.00000   0.00000   2.07510
   A20        2.07510   0.00000   0.00000   0.00000   0.00000   2.07510
   A21        2.07650   0.00000   0.00000   0.00000   0.00000   2.07650
   A22        2.07650   0.00000   0.00000   0.00000   0.00000   2.07650
   A23        2.14985   0.00000   0.00000   0.00000   0.00000   2.14985
   A24        2.14985   0.00000   0.00000   0.00000   0.00000   2.14985
   A25        1.98349   0.00000   0.00000   0.00000   0.00000   1.98349
   A26        1.56989   0.00000   0.00000   0.00000   0.00000   1.56989
   A27        1.57016   0.00000   0.00000   0.00000   0.00000   1.57016
   A28        1.59841   0.00000   0.00000   0.00000   0.00000   1.59841
   A29        1.54318   0.00000   0.00000   0.00000   0.00000   1.54318
   A30        1.59868   0.00000   0.00000   0.00000   0.00000   1.59868
   A31        1.54291   0.00000   0.00000   0.00000   0.00000   1.54291
   A32        1.57016   0.00000   0.00000   0.00000   0.00000   1.57016
   A33        1.59868   0.00000   0.00000   0.00000   0.00000   1.59868
   A34        1.54291   0.00000   0.00000   0.00000   0.00000   1.54291
   A35        1.56989   0.00000   0.00000   0.00000   0.00000   1.56989
   A36        1.59841   0.00000   0.00000   0.00000   0.00000   1.59841
   A37        1.54318   0.00000   0.00000   0.00000   0.00000   1.54318
   A38        1.54318   0.00000   0.00000   0.00000   0.00000   1.54318
   A39        1.56989   0.00000   0.00000   0.00000   0.00000   1.56989
   A40        1.57016   0.00000   0.00000   0.00000   0.00000   1.57016
   A41        1.59841   0.00000   0.00000   0.00000   0.00000   1.59841
   A42        1.54291   0.00000   0.00000   0.00000   0.00000   1.54291
   A43        1.54318   0.00000   0.00000   0.00000   0.00000   1.54318
   A44        1.54291   0.00000   0.00000   0.00000   0.00000   1.54291
   A45        1.57016   0.00000   0.00000   0.00000   0.00000   1.57016
   A46        1.59868   0.00000   0.00000   0.00000   0.00000   1.59868
   A47        1.56989   0.00000   0.00000   0.00000   0.00000   1.56989
   A48        1.59841   0.00000   0.00000   0.00000   0.00000   1.59841
   A49        1.59868   0.00000   0.00000   0.00000   0.00000   1.59868
   A50        2.07510   0.00000   0.00000   0.00000   0.00000   2.07510
   A51        2.07650   0.00000   0.00000   0.00000   0.00000   2.07650
   A52        2.18585   0.00000   0.00000   0.00000   0.00000   2.18585
   A53        2.04856   0.00000   0.00000   0.00000   0.00000   2.04856
   A54        2.04856   0.00000   0.00000   0.00000   0.00000   2.04856
   A55        2.07510   0.00000   0.00000   0.00000   0.00000   2.07510
   A56        2.07650   0.00000   0.00000   0.00000   0.00000   2.07650
   A57        2.14985   0.00000   0.00000   0.00000   0.00000   2.14985
   A58        2.14985   0.00000   0.00000   0.00000   0.00000   2.14985
   A59        1.98349   0.00000   0.00000   0.00000   0.00000   1.98349
   A60        2.18810   0.00000   0.00000   0.00000   0.00000   2.18810
   A61        2.04744   0.00000   0.00000   0.00000   0.00000   2.04744
   A62        2.04744   0.00000   0.00000   0.00000   0.00000   2.04744
   A63        1.90887   0.00000   0.00000   0.00000   0.00000   1.90887
   A64        1.92220   0.00000   0.00000   0.00000   0.00000   1.92220
   A65        1.92220   0.00000   0.00000   0.00000   0.00000   1.92220
   A66        1.88994   0.00000   0.00000   0.00000   0.00000   1.88994
   A67        1.88994   0.00000   0.00000   0.00000   0.00000   1.88994
   A68        1.93001   0.00000   0.00000   0.00000   0.00000   1.93001
   A69        1.90863   0.00000   0.00000   0.00000   0.00000   1.90863
   A70        1.92162   0.00000   0.00000   0.00000   0.00000   1.92162
   A71        1.92162   0.00000   0.00000   0.00000   0.00000   1.92162
   A72        1.88966   0.00000   0.00000   0.00000   0.00000   1.88966
   A73        1.88966   0.00000   0.00000   0.00000   0.00000   1.88966
   A74        1.93195   0.00000   0.00000   0.00000   0.00000   1.93195
    D1        1.56036   0.00000   0.00000   0.00000   0.00000   1.56036
    D2       -2.64865   0.00000   0.00000   0.00000   0.00000  -2.64865
    D3       -0.51381   0.00000   0.00000   0.00000   0.00000  -0.51381
    D4       -1.56036   0.00000   0.00000   0.00000   0.00000  -1.56036
    D5        0.51381   0.00000   0.00000   0.00000   0.00000   0.51381
    D6        2.64865   0.00000   0.00000   0.00000   0.00000   2.64865
    D7       -3.10255   0.00000   0.00000   0.00000   0.00000  -3.10255
    D8        0.01630   0.00000   0.00000   0.00000   0.00000   0.01630
    D9        3.10255   0.00000   0.00000   0.00000   0.00000   3.10255
   D10       -0.01630   0.00000   0.00000   0.00000   0.00000  -0.01630
   D11        1.56016   0.00000   0.00000   0.00000   0.00000   1.56016
   D12       -2.64802   0.00000   0.00000   0.00000   0.00000  -2.64802
   D13       -0.51485   0.00000   0.00000   0.00000   0.00000  -0.51485
   D14       -1.56016   0.00000   0.00000   0.00000   0.00000  -1.56016
   D15        0.51485   0.00000   0.00000   0.00000   0.00000   0.51485
   D16        2.64802   0.00000   0.00000   0.00000   0.00000   2.64802
   D17       -3.10196   0.00000   0.00000   0.00000   0.00000  -3.10196
   D18        0.01650   0.00000   0.00000   0.00000   0.00000   0.01650
   D19        3.10196   0.00000   0.00000   0.00000   0.00000   3.10196
   D20       -0.01650   0.00000   0.00000   0.00000   0.00000  -0.01650
   D21       -1.55041   0.00000   0.00000   0.00000   0.00000  -1.55041
   D22        1.53543   0.00000   0.00000   0.00000   0.00000   1.53543
   D23        3.13411   0.00000   0.00000   0.00000   0.00000   3.13411
   D24       -0.00748   0.00000   0.00000   0.00000   0.00000  -0.00748
   D25       -0.01475   0.00000   0.00000   0.00000   0.00000  -0.01475
   D26        0.00748   0.00000   0.00000   0.00000   0.00000   0.00748
   D27        1.55041   0.00000   0.00000   0.00000   0.00000   1.55041
   D28       -1.53543   0.00000   0.00000   0.00000   0.00000  -1.53543
   D29       -3.13411   0.00000   0.00000   0.00000   0.00000  -3.13411
   D30        0.01475   0.00000   0.00000   0.00000   0.00000   0.01475
   D31        1.53560   0.00000   0.00000   0.00000   0.00000   1.53560
   D32        3.13400   0.00000   0.00000   0.00000   0.00000   3.13400
   D33       -0.00759   0.00000   0.00000   0.00000   0.00000  -0.00759
   D34       -1.55078   0.00000   0.00000   0.00000   0.00000  -1.55078
   D35       -1.55078   0.00000   0.00000   0.00000   0.00000  -1.55078
   D36        3.13400   0.00000   0.00000   0.00000   0.00000   3.13400
   D37       -0.00759   0.00000   0.00000   0.00000   0.00000  -0.00759
   D38        1.53560   0.00000   0.00000   0.00000   0.00000   1.53560
   D39        0.01650   0.00000   0.00000   0.00000   0.00000   0.01650
   D40       -3.10196   0.00000   0.00000   0.00000   0.00000  -3.10196
   D41        1.56501   0.00000   0.00000   0.00000   0.00000   1.56501
   D42       -0.00565   0.00000   0.00000   0.00000   0.00000  -0.00565
   D43        3.13594   0.00000   0.00000   0.00000   0.00000   3.13594
   D44       -1.57658   0.00000   0.00000   0.00000   0.00000  -1.57658
   D45       -1.57658   0.00000   0.00000   0.00000   0.00000  -1.57658
   D46        3.13594   0.00000   0.00000   0.00000   0.00000   3.13594
   D47       -0.00565   0.00000   0.00000   0.00000   0.00000  -0.00565
   D48        1.56501   0.00000   0.00000   0.00000   0.00000   1.56501
   D49        1.56501   0.00000   0.00000   0.00000   0.00000   1.56501
   D50       -0.00565   0.00000   0.00000   0.00000   0.00000  -0.00565
   D51       -1.57658   0.00000   0.00000   0.00000   0.00000  -1.57658
   D52        3.13594   0.00000   0.00000   0.00000   0.00000   3.13594
   D53       -1.57658   0.00000   0.00000   0.00000   0.00000  -1.57658
   D54        3.13594   0.00000   0.00000   0.00000   0.00000   3.13594
   D55        1.56501   0.00000   0.00000   0.00000   0.00000   1.56501
   D56       -0.00565   0.00000   0.00000   0.00000   0.00000  -0.00565
   D57       -3.14159   0.00000   0.00000   0.00000   0.00000   3.14159
   D58        0.00000   0.00000   0.00000   0.00000   0.00000   0.00000
   D59        0.00000   0.00000   0.00000   0.00000   0.00000   0.00000
   D60        3.14159   0.00000   0.00000   0.00000   0.00000   3.14159
   D61        0.00000   0.00000   0.00000   0.00000   0.00000   0.00000
   D62       -1.57066   0.00000   0.00000   0.00000   0.00000  -1.57066
   D63        3.14159   0.00000   0.00000   0.00000   0.00000   3.14159
   D64        1.57093   0.00000   0.00000   0.00000   0.00000   1.57093
   D65        1.57066   0.00000   0.00000   0.00000   0.00000   1.57066
   D66        0.00000   0.00000   0.00000   0.00000   0.00000   0.00000
   D67       -1.57093   0.00000   0.00000   0.00000   0.00000  -1.57093
   D68        3.14159   0.00000   0.00000   0.00000   0.00000   3.14159
   D69       -1.57093   0.00000   0.00000   0.00000   0.00000  -1.57093
   D70       -3.14159   0.00000   0.00000   0.00000   0.00000  -3.14159
   D71        1.57066   0.00000   0.00000   0.00000   0.00000   1.57066
   D72        0.00000   0.00000   0.00000   0.00000   0.00000   0.00000
   D73        3.14159   0.00000   0.00000   0.00000   0.00000   3.14159
   D74        1.57093   0.00000   0.00000   0.00000   0.00000   1.57093
   D75        0.00000   0.00000   0.00000   0.00000   0.00000   0.00000
   D76       -1.57066   0.00000   0.00000   0.00000   0.00000  -1.57066
   D77        1.53543   0.00000   0.00000   0.00000   0.00000   1.53543
   D78       -1.55041   0.00000   0.00000   0.00000   0.00000  -1.55041
   D79        3.13411   0.00000   0.00000   0.00000   0.00000   3.13411
   D80       -0.00748   0.00000   0.00000   0.00000   0.00000  -0.00748
   D81        1.57658   0.00000   0.00000   0.00000   0.00000   1.57658
   D82       -1.56501   0.00000   0.00000   0.00000   0.00000  -1.56501
   D83       -3.13594   0.00000   0.00000   0.00000   0.00000  -3.13594
   D84        0.00565   0.00000   0.00000   0.00000   0.00000   0.00565
   D85        0.00565   0.00000   0.00000   0.00000   0.00000   0.00565
   D86       -3.13594   0.00000   0.00000   0.00000   0.00000  -3.13594
   D87       -1.56501   0.00000   0.00000   0.00000   0.00000  -1.56501
   D88        1.57658   0.00000   0.00000   0.00000   0.00000   1.57658
   D89       -1.53560   0.00000   0.00000   0.00000   0.00000  -1.53560
   D90        0.00759   0.00000   0.00000   0.00000   0.00000   0.00759
   D91        1.55078   0.00000   0.00000   0.00000   0.00000   1.55078
   D92       -3.13400   0.00000   0.00000   0.00000   0.00000  -3.13400
   D93        0.01496   0.00000   0.00000   0.00000   0.00000   0.01496
   D94        0.00748   0.00000   0.00000   0.00000   0.00000   0.00748
   D95       -1.53543   0.00000   0.00000   0.00000   0.00000  -1.53543
   D96        1.55041   0.00000   0.00000   0.00000   0.00000   1.55041
   D97       -3.13411   0.00000   0.00000   0.00000   0.00000  -3.13411
   D98        1.55078   0.00000   0.00000   0.00000   0.00000   1.55078
   D99        0.00759   0.00000   0.00000   0.00000   0.00000   0.00759
   D100      -1.53560   0.00000   0.00000   0.00000   0.00000  -1.53560
   D101      -3.13400   0.00000   0.00000   0.00000   0.00000  -3.13400
   D102       1.57658   0.00000   0.00000   0.00000   0.00000   1.57658
   D103      -1.56501   0.00000   0.00000   0.00000   0.00000  -1.56501
   D104      -3.13594   0.00000   0.00000   0.00000   0.00000  -3.13594
   D105       0.00565   0.00000   0.00000   0.00000   0.00000   0.00565
   D106      -1.56501   0.00000   0.00000   0.00000   0.00000  -1.56501
   D107       1.57658   0.00000   0.00000   0.00000   0.00000   1.57658
   D108       0.00565   0.00000   0.00000   0.00000   0.00000   0.00565
   D109      -3.13594   0.00000   0.00000   0.00000   0.00000  -3.13594
   D110       0.01630   0.00000   0.00000   0.00000   0.00000   0.01630
   D111      -3.10255   0.00000   0.00000   0.00000   0.00000  -3.10255
   D112      -0.01650   0.00000   0.00000   0.00000   0.00000  -0.01650
   D113       3.10196   0.00000   0.00000   0.00000   0.00000   3.10196
   D114       1.56016   0.00000   0.00000   0.00000   0.00000   1.56016
   D115      -0.51485   0.00000   0.00000   0.00000   0.00000  -0.51485
   D116      -2.64802   0.00000   0.00000   0.00000   0.00000  -2.64802
   D117      -1.56016   0.00000   0.00000   0.00000   0.00000  -1.56016
   D118       2.64802   0.00000   0.00000   0.00000   0.00000   2.64802
   D119       0.51485   0.00000   0.00000   0.00000   0.00000   0.51485
   D120      -0.01630   0.00000   0.00000   0.00000   0.00000  -0.01630
   D121       3.10255   0.00000   0.00000   0.00000   0.00000   3.10255
   D122       1.56036   0.00000   0.00000   0.00000   0.00000   1.56036
   D123      -0.51381   0.00000   0.00000   0.00000   0.00000  -0.51381
   D124      -2.64865   0.00000   0.00000   0.00000   0.00000  -2.64865
   D125      -1.56036   0.00000   0.00000   0.00000   0.00000  -1.56036
   D126       2.64865   0.00000   0.00000   0.00000   0.00000   2.64865
   D127       0.51381   0.00000   0.00000   0.00000   0.00000   0.51381
         Item               Value     Threshold  Converged?
 Maximum Force            0.000000     0.000002     YES
 RMS     Force            0.000000     0.000001     YES
 Maximum Displacement     0.000007     0.000006     NO 
 RMS     Displacement     0.000001     0.000004     YES
 Predicted change in Energy=-4.547014D-13
 GradGradGradGradGradGradGradGradGradGradGradGradGradGradGradGradGradGrad

 1\1\GINC-CASEGROUP1\Freq\RBP86\LANL2DZ\C8H16O10Rh2\CASE\03-Dec-2012\0\
 \#N Geom=AllCheck Guess=TCheck SCRF=Check GenChk RBP86/LANL2DZ Freq\\d
 i-rhodium tetra-acetate dihydrate\\0,1\C,-0.0086365825,2.679439994,0.\
 C,-0.0610338295,4.1977979746,0.\C,2.6802612931,0.009118887,0.\C,4.1982
 692357,0.0624692122,0.\H,-1.1167709425,4.5282412847,0.\H,0.4246702243,
 4.5933938617,0.9062346892\H,0.4246702243,4.5933938617,-0.9062346892\H,
 4.5282901954,1.1183302874,0.\H,4.5947940689,-0.423606928,0.9056185149\
 H,4.5947940689,-0.423606928,-0.9056185149\O,-0.0000196741,2.0763788898
 ,-1.1677554914\O,-0.0000196741,2.0763788898,1.1677554914\O,2.075819830
 7,0.0003006407,-1.1672074877\O,-2.0758198307,-0.0003006407,-1.16720748
 77\O,0.,0.,-3.5001954645\Rh,0.,0.,-1.2251100273\Rh,0.,0.,1.2251100273\
 O,0.0000196741,-2.0763788898,-1.1677554914\O,2.0758198307,0.0003006407
 ,1.1672074877\C,-2.6802612931,-0.009118887,0.\O,0.0000196741,-2.076378
 8898,1.1677554914\O,-2.0758198307,-0.0003006407,1.1672074877\O,0.,0.,3
 .5001954645\C,0.0086365825,-2.679439994,0.\C,-4.1982692357,-0.06246921
 22,0.\C,0.0610338295,-4.1977979746,0.\H,1.1167709425,-4.5282412847,0.\
 H,-0.4246702243,-4.5933938617,-0.9062346892\H,-0.4246702243,-4.5933938
 617,0.9062346892\H,-4.5282901954,-1.1183302874,0.\H,-4.5947940689,0.42
 3606928,-0.9056185149\H,-4.5947940689,0.423606928,0.9056185149\H,-0.82
 15506233,-0.0047633267,4.0373440996\H,0.8215506233,0.0047633267,4.0373
 440996\H,0.8215506233,0.0047633267,-4.0373440996\H,-0.8215506233,-0.00
 47633267,-4.0373440996\\Version=AM64L-G09RevA.02\State=1-AG\HF=-1286.1
 063268\RMSD=1.366e-09\RMSF=5.809e-08\ZeroPoint=0.2485875\Thermal=0.276
 8218\Dipole=0.,0.,0.\DipoleDeriv=0.1243522,-0.1044779,0.,-0.0394086,1.
 149486,0.,0.,0.,0.9985354,0.0359529,0.1172434,0.,0.0356934,-0.3931011,
 0.,0.,0.,0.0837623,1.1479502,0.0394424,0.,0.1052611,0.1303671,0.,0.,0.
 ,1.0137882,-0.3892954,-0.0360507,0.,-0.1203613,0.034658,0.,0.,0.,0.083
 6497,-0.0825806,0.0789944,0.,0.0237303,0.0240593,0.,0.,0.,0.1145677,0.
 0723442,-0.0660216,-0.0762162,-0.019381,0.0367415,-0.0151907,-0.081535
 2,-0.0848531,-0.0311749,0.0723442,-0.0660216,0.0762162,-0.019381,0.036
 7415,0.0151907,0.0815352,0.0848531,-0.0311749,0.024962,-0.0232642,0.,-
 0.0772183,-0.0804959,0.,0.,0.,0.1147187,0.0376128,0.0191658,-0.0148083
 ,0.0662745,0.0729433,0.0759625,-0.0850191,0.08201,-0.0319712,0.0376128
 ,0.0191658,0.0148083,0.0662745,0.0729433,-0.0759625,0.0850191,-0.08201
 ,-0.0319712,-0.1571353,0.0168046,0.0041745,0.0096598,-0.9745626,-0.187
 132,0.0087155,-0.2005697,-0.6306756,-0.1571353,0.0168046,-0.0041745,0.
 0096598,-0.9745626,0.187132,-0.0087155,0.2005697,-0.6306756,-0.953761,
 -0.0093869,-0.1891486,-0.0168858,-0.1592739,-0.004424,-0.1925885,-0.00
 88187,-0.6468076,-0.953761,-0.0093869,0.1891486,-0.0168858,-0.1592739,
 0.004424,0.1925885,0.0088187,-0.6468076,-0.262248,0.0014932,0.,0.00356
 43,-0.6408594,0.,0.,0.,-0.6156109,0.9231492,0.0064558,0.,-0.0076215,1.
 0143787,0.,0.,0.,0.6553592,0.9231492,0.0064558,0.,-0.0076215,1.0143787
 ,0.,0.,0.,0.6553592,-0.1571353,0.0168046,-0.0041745,0.0096597,-0.97456
 26,0.187132,-0.0087155,0.2005697,-0.6306756,-0.953761,-0.0093869,0.189
 1486,-0.0168858,-0.1592739,0.004424,0.1925885,0.0088187,-0.6468076,1.1
 479503,0.0394424,0.,0.1052611,0.1303671,0.,0.,0.,1.0137882,-0.1571353,
 0.0168046,0.0041745,0.0096598,-0.9745626,-0.187132,0.0087155,-0.200569
 8,-0.6306756,-0.953761,-0.0093869,-0.1891486,-0.0168858,-0.1592739,-0.
 004424,-0.1925885,-0.0088187,-0.6468076,-0.262248,0.0014932,0.,0.00356
 43,-0.6408594,0.,0.,0.,-0.6156109,0.1243522,-0.1044779,0.,-0.0394085,1
 .149486,0.,0.,0.,0.9985354,-0.3892954,-0.0360506,0.,-0.1203613,0.03465
 8,0.,0.,0.,0.0836497,0.0359529,0.1172434,0.,0.0356934,-0.3931011,0.,0.
 ,0.,0.0837623,-0.0825805,0.0789944,0.,0.0237303,0.0240593,0.,0.,0.,0.1
 145677,0.0723442,-0.0660216,-0.0762162,-0.019381,0.0367415,-0.0151907,
 -0.0815352,-0.0848531,-0.0311749,0.0723442,-0.0660216,0.0762162,-0.019
 381,0.0367415,0.0151907,0.0815352,0.0848531,-0.0311749,0.024962,-0.023
 2642,0.,-0.0772183,-0.0804959,0.,0.,0.,0.1147187,0.0376128,0.0191658,-
 0.0148083,0.0662745,0.0729433,0.0759625,-0.0850191,0.08201,-0.0319712,
 0.0376128,0.0191658,0.0148083,0.0662745,0.0729433,-0.0759625,0.0850191
 ,-0.08201,-0.0319712,0.2398129,-0.0004802,0.1115545,-0.0014873,0.40490
 03,0.0006043,0.0374345,0.0005529,0.1162422,0.2398128,-0.0004802,-0.111
 5545,-0.0014873,0.4049003,-0.0006043,-0.0374345,-0.0005529,0.1162422,0
 .2398129,-0.0004802,0.1115545,-0.0014873,0.4049003,0.0006043,0.0374345
 ,0.0005529,0.1162422,0.2398129,-0.0004802,-0.1115545,-0.0014873,0.4049
 003,-0.0006043,-0.0374345,-0.0005529,0.1162422\Polar=209.5175594,0.042
 135,205.4359489,0.,0.0000001,182.3163846\PG=C02H [C2(O1Rh1.Rh1O1),SGH(
 C8H4),X(H12O8)]\NImag=2\\0.18988681,-0.01040937,0.60793000,0.,0.,0.654
 23670,-0.07675383,0.00066109,0.,0.51464925,0.00443676,-0.19114974,0.,0
 .01247224,0.45515615,0.,0.,-0.06501053,0.,0.,0.57902991,-0.00110702,0.
 00324583,0.,-0.00020389,-0.00045038,0.,0.60937666,0.00021570,-0.001009
 65,0.,0.00018105,0.00013290,0.,0.01069222,0.18912640,0.,0.,0.01416443,
 0.,0.,-0.00090797,0.,0.,0.65581374,0.00016297,-0.00043066,0.,-0.000053
 41,0.00001515,0.,-0.19191078,-0.00453212,0.,0.45593392,0.00025742,-0.0
 0043878,0.,0.00010492,0.00000379,0.,-0.00070140,-0.07673020,0.,-0.0126
 8214,0.51492201,0.,0.,-0.00120766,0.,0.,0.00012125,0.,0.,-0.06520306,0
 .,0.,0.57879269,0.00052620,-0.00160945,0.,-0.27596860,0.07104705,0.,-0
 .00001342,-0.00002436,0.,0.00000236,-0.00000900,0.,0.30130467,0.034417
 53,-0.01363368,0.,0.07375199,-0.06254081,0.,0.00000537,-0.00004503,0.,
 0.00001722,-0.00003104,0.,-0.07917876,0.07151256,0.,0.,-0.00034134,0.,
 0.,-0.04018252,0.,0.,-0.00011943,0.,0.,0.00001414,0.,0.,0.04184823,-0.
 00016746,0.00441043,0.00025744,-0.09517474,-0.04480219,-0.09594789,-0.
 00002077,0.00005220,0.00000811,0.00000255,0.00001533,-0.00000614,-0.01
 300307,-0.01157079,-0.02581536,0.10153321,-0.01614944,-0.01117824,-0.0
 2898736,-0.04254159,-0.07689941,-0.07327006,-0.00005411,-0.00005097,-0
 .00046705,0.00002047,0.00000159,0.00004335,0.00497592,0.00322346,0.007
 89009,0.04504005,0.08537791,0.00111679,0.00278493,-0.00236010,-0.09699
 679,-0.07763068,-0.22525122,-0.00009348,-0.00004996,-0.00012690,0.0000
 2457,-0.00000973,0.00001180,0.00290287,-0.00048751,-0.00006697,0.10649
 719,0.08474843,0.24235642,-0.00016746,0.00441043,-0.00025744,-0.095174
 74,-0.04480219,0.09594789,-0.00002077,0.00005220,-0.00000811,0.0000025
 5,0.00001533,0.00000614,-0.01300307,-0.01157079,0.02581536,0.00623874,
 0.00573064,-0.01310704,0.10153321,-0.01614944,-0.01117824,0.02898736,-
 0.04254159,-0.07689941,0.07327006,-0.00005411,-0.00005097,0.00046705,0
 .00002047,0.00000159,-0.00004335,0.00497592,0.00322346,-0.00789009,0.0
 0573064,0.00397967,-0.01000560,0.04504005,0.08537791,-0.00111679,-0.00
 278493,-0.00236010,0.09699679,0.07763068,-0.22525122,0.00009348,0.0000
 4996,-0.00012690,-0.00002457,0.00000973,0.00001180,-0.00290287,0.00048
 751,-0.00006697,0.01310704,0.01000560,-0.01672273,-0.10649719,-0.08474
 843,0.24235642,-0.00009504,-0.00008418,0.,0.00002882,0.00003310,0.,-0.
 01367369,-0.03441498,0.,-0.06253834,-0.07366839,0.,0.00002794,0.000004
 87,0.,-0.00003225,0.00004335,0.00003184,-0.00003225,0.00004335,-0.0000
 3184,0.07151467,0.00003836,-0.00001825,0.,-0.00001464,0.00001746,0.,0.
 00152540,0.00054046,0.,-0.07094173,-0.27607589,0.,-0.00000241,0.000003
 15,0.,0.00000029,0.00000409,0.00000174,0.00000029,0.00000409,-0.000001
 74,0.07910633,0.30138258,0.,0.,0.00017551,0.,0.,0.00003606,0.,0.,-0.00
 033553,0.,0.,-0.04023268,0.,0.,-0.00000510,0.00000753,-0.00001427,-0.0
 0000778,-0.00000753,0.00001427,-0.00000778,0.,0.,0.04192360,-0.0000227
 2,0.00000338,-0.00036278,-0.00002099,0.00001144,0.00003591,-0.01118661
 ,0.01612860,-0.02902816,-0.07708527,0.04264241,-0.07340495,0.00000054,
 0.00000892,0.00000294,-0.00000044,0.00001548,0.00000569,-0.00000119,-0
 .00000857,0.00000029,0.00322968,-0.00496184,0.00788467,0.08554679,-0.0
 0001423,0.00004219,0.00014760,0.00000682,-0.00001303,0.00001350,-0.004
 43058,-0.00014819,-0.00027862,0.04492675,-0.09522716,0.09604318,0.0000
 0390,-0.00000270,-0.00000198,-0.00000189,-0.00000773,-0.00000246,-0.00
 000685,0.00000873,-0.00000464,0.01158602,-0.01297468,0.02581093,-0.045
 18075,0.10154775,0.00001458,-0.00003873,-0.00009744,-0.00000850,0.0000
 0517,0.00000088,0.00281285,-0.00111771,-0.00239758,-0.07773637,0.09697
 061,-0.22501662,-0.00000652,0.00000206,0.00000095,0.00000539,-0.000002
 78,0.00000017,0.00000587,-0.00000946,0.00000250,-0.00048389,-0.0028951
 6,-0.00006891,0.08483144,-0.10650055,0.24218548,-0.00002272,0.00000338
 ,0.00036278,-0.00002099,0.00001144,-0.00003591,-0.01118661,0.01612860,
 0.02902816,-0.07708527,0.04264241,0.07340495,0.00000054,0.00000892,-0.
 00000294,-0.00000119,-0.00000857,-0.00000029,-0.00000044,0.00001548,-0
 .00000569,0.00322968,-0.00496184,-0.00788467,0.00399897,-0.00571530,-0
 .01002856,0.08554679,-0.00001423,0.00004219,-0.00014760,0.00000682,-0.
 00001303,-0.00001350,-0.00443058,-0.00014819,0.00027862,0.04492675,-0.
 09522716,-0.09604318,0.00000390,-0.00000270,0.00000198,-0.00000685,0.0
 0000873,0.00000464,-0.00000189,-0.00000773,0.00000246,0.01158602,-0.01
 297468,-0.02581093,-0.00571530,0.00622490,0.01312238,-0.04518075,0.101
 54775,-0.00001458,0.00003873,-0.00009744,0.00000850,-0.00000517,0.0000
 0088,-0.00281285,0.00111771,-0.00239758,0.07773637,-0.09697061,-0.2250
 1662,0.00000652,-0.00000206,0.00000095,-0.00000587,0.00000946,0.000002
 50,-0.00000539,0.00000278,0.00000017,0.00048389,0.00289516,-0.00006891
 ,0.01002856,-0.01312238,-0.01681601,-0.08483144,0.10650055,0.24218548,
 -0.05683626,0.00081670,0.00113138,0.01063836,0.00105969,0.00234819,0.0
 0153787,-0.00031598,0.00142854,-0.00006780,-0.00056212,0.00004095,0.00
 011460,-0.00209960,-0.00076385,0.00053285,0.00070484,-0.00066925,-0.00
 006509,0.00150542,-0.00010655,0.00003496,0.00002820,0.00005260,0.00009
 801,0.00003896,-0.00002518,0.00005757,-0.00003024,-0.00002248,0.045424
 34,0.00208993,-0.17053485,-0.11720849,-0.00093420,-0.02714791,-0.04220
 540,-0.00115818,0.00028732,-0.00248945,0.00020416,-0.00002506,0.000302
 41,-0.00020107,-0.00054459,-0.00112907,0.00115305,-0.00765936,-0.00086
 944,-0.00000228,0.00292876,-0.00145477,0.00006144,0.00001214,-0.000029
 03,0.00008088,-0.00006718,-0.00000257,-0.00008700,-0.00002201,0.000022
 04,-0.00223229,0.27296407,0.00233632,-0.12320789,-0.28507622,0.0012174
 4,-0.01189358,-0.01089537,-0.00028174,0.00031445,-0.00644070,0.0000860
 1,-0.00005173,0.00059995,-0.00080986,0.00038489,-0.00055662,0.00064620
 ,-0.00061085,0.00127174,-0.00118181,-0.00023007,0.00046373,-0.00003287
 ,-0.00000752,-0.00009318,0.00019615,-0.00008330,0.00006028,-0.00017157
 ,0.00006293,0.00003793,-0.00190935,0.14160603,0.40030846,-0.05683626,0
 .00081670,-0.00113138,0.01063836,0.00105969,-0.00234819,0.00153787,-0.
 00031598,-0.00142854,-0.00006780,-0.00056212,-0.00004095,0.00011460,-0
 .00209960,0.00076385,-0.00006509,0.00150542,0.00010655,0.00053285,0.00
 070484,0.00066925,0.00003496,0.00002820,-0.00005260,0.00005757,-0.0000
 3024,0.00002248,0.00009801,0.00003896,0.00002518,0.02475737,0.00015165
 ,-0.00007130,0.04542434,0.00208993,-0.17053485,0.11720849,-0.00093420,
 -0.02714792,0.04220540,-0.00115818,0.00028732,0.00248945,0.00020416,-0
 .00002506,-0.00030241,-0.00020107,-0.00054459,0.00112907,-0.00000228,0
 .00292876,0.00145477,0.00115305,-0.00765936,0.00086944,0.00006144,0.00
 001214,0.00002903,-0.00008700,-0.00002201,-0.00002204,0.00008088,-0.00
 006718,0.00000257,0.00015165,0.02528304,-0.00359959,-0.00223229,0.2729
 6407,-0.00233632,0.12320789,-0.28507622,-0.00121744,0.01189358,-0.0108
 9537,0.00028174,-0.00031445,-0.00644070,-0.00008601,0.00005173,0.00059
 995,0.00080986,-0.00038489,-0.00055662,0.00118181,0.00023007,0.0004637
 3,-0.00064620,0.00061085,0.00127174,0.00003287,0.00000752,-0.00009318,
 0.00017157,-0.00006293,0.00003793,-0.00019615,0.00008330,0.00006028,0.
 00007130,0.00359959,-0.08946943,0.00190935,-0.14160603,0.40030846,0.00
 024577,-0.00105897,-0.00249486,-0.00004465,0.00014631,0.00022387,-0.17
 045249,-0.00219284,-0.11803676,-0.02697891,0.00098760,-0.04214638,0.00
 002899,-0.00003063,0.00001962,-0.00003942,0.00014149,0.00009789,-0.000
 04478,-0.00006414,-0.00004156,-0.00050884,0.00022764,-0.00112396,-0.00
 763353,-0.00119890,-0.00086914,0.00296007,-0.00001053,-0.00143993,-0.0
 0127611,0.00186831,0.00146936,0.00032453,0.00022958,0.00111986,0.27311
 230,-0.00022591,0.00148403,0.00136439,-0.00052269,-0.00005493,-0.00001
 110,-0.00087566,-0.05650138,-0.00118177,-0.00107653,0.01058797,-0.0023
 7924,0.00001290,0.00016775,0.00001408,-0.00004796,-0.00003365,0.000020
 88,-0.00003990,0.00006156,-0.00003698,0.00208772,0.00010504,0.00077025
 ,-0.00069369,0.00052381,0.00067661,-0.00150516,-0.00007529,0.00011067,
 0.00599240,-0.00126930,-0.00033188,0.00062469,0.00029927,-0.00037957,0
 .00229071,0.04608865,0.00028345,-0.00027257,-0.00643432,-0.00002942,0.
 00006348,0.00045710,-0.12308493,-0.00238663,-0.28510844,-0.01180390,-0
 .00124164,-0.01092037,-0.00000570,0.00001696,0.00004925,-0.00001317,0.
 00023117,0.00007663,-0.00000333,-0.00024457,0.00004471,0.00037681,0.00
 082997,-0.00057327,-0.00062297,-0.00066121,0.00130997,-0.00028490,0.00
 121201,0.00048694,-0.00043855,0.00146429,0.00325271,0.00040915,-0.0010
 9732,0.00299312,0.14188481,0.00195650,0.39957975,0.00028339,0.00113801
 ,0.00245329,-0.00003208,-0.00020103,-0.00030876,0.00228356,0.00007353,
 0.01908252,-0.00063479,0.00015736,-0.00256488,0.00001450,-0.00005911,0
 .00002945,-0.00006421,-0.00008566,0.00000279,-0.00002007,0.00008638,-0
 .00001975,-0.00008194,-0.00005933,-0.00007988,-0.00079317,-0.00008385,
 -0.00024079,0.00061761,-0.00002522,-0.00009332,-0.00126867,-0.00186356
 ,-0.00146117,0.00030342,-0.00022986,-0.00108128,-0.01766302,-0.0000687
 2,-0.00400955,0.27311230,0.00028190,0.00153366,0.00141010,0.00056684,-
 0.00006984,0.00005189,0.00010647,0.00020831,0.00008138,-0.00006314,-0.
 00119587,0.00018063,-0.00002852,0.00003294,0.00005166,-0.00003971,0.00
 010115,-0.00002587,0.00003019,0.00005644,-0.00002253,-0.00026345,-0.00
 001175,-0.00006592,0.00016455,-0.00003727,0.00000022,0.00007243,0.0000
 0570,-0.00005930,-0.00598578,-0.00126557,-0.00038835,-0.00062360,0.000
 31838,-0.00040832,-0.00006872,0.00868848,-0.00008424,0.00229071,0.0460
 8865,-0.00030231,-0.00025432,-0.00646565,0.00004487,0.00008009,0.00061
 002,0.00292587,0.00002800,-0.01065032,0.00003205,-0.00004806,0.0016541
 8,0.00000768,-0.00003258,-0.00009394,0.00008218,0.00019861,0.00005922,
 -0.00006437,-0.00017814,0.00003927,0.00001893,0.00001063,0.00005311,0.
 00046475,0.00000493,0.00008668,-0.00035942,0.00000447,0.00009856,0.000
 38110,0.00147061,0.00325194,-0.00037786,-0.00113507,0.00299368,0.00400
 955,0.00008424,0.01279759,-0.14188481,-0.00195650,0.39957975,0.0000413
 6,0.00000816,-0.00000099,-0.00005397,-0.00001162,0.00002538,0.00002919
 ,-0.00000494,0.00105597,-0.00005818,-0.00001441,-0.00001043,0.00002148
 ,-0.00001282,-0.00002670,0.00000039,-0.00000403,0.00001352,-0.00002977
 ,0.00001950,-0.00001671,0.00002161,0.00000205,0.00002432,-0.00000499,0
 .00003067,-0.00003859,0.00006146,-0.00001724,0.00001831,0.00052065,0.0
 0000299,-0.00000728,0.00007089,-0.00000701,0.00000883,-0.00003344,-0.0
 0000709,-0.00353363,-0.00003344,-0.00000709,0.00353363,0.72728767,0.00
 002037,0.00052242,0.00232855,-0.00003169,-0.00009065,-0.00002015,-0.00
 002173,0.00003616,-0.00001006,0.00002179,-0.00003747,-0.00004280,-0.00
 001532,0.00004676,0.00006295,-0.00003834,-0.00001270,-0.00008248,0.000
 07476,0.00016630,0.00002367,0.00004256,0.00003681,0.00004389,-0.000007
 42,-0.00000287,-0.00002791,-0.00004383,-0.00005422,0.00003093,0.000011
 00,-0.00002037,-0.00321566,-0.00001649,0.00090334,-0.00159781,0.000003
 74,0.00061381,0.00000582,0.00000374,0.00061381,-0.00000582,0.00424858,
 -0.00474763,-0.00004150,0.00088352,-0.00197487,0.00006388,-0.00018926,
 0.00023253,0.00073943,0.00003513,-0.00219492,-0.00016405,-0.00004350,0
 .00030134,0.00002500,-0.00003650,-0.00000964,-0.00000702,0.00005982,0.
 00000140,-0.00004618,-0.00012331,0.00002077,-0.00003009,-0.00001865,-0
 .00000098,0.00007495,0.00000284,-0.00000422,-0.00010511,0.00002640,0.0
 0002864,0.00000098,-0.00078706,0.00081784,-0.00000547,-0.00060793,0.00
 139717,-0.00018823,-0.00000147,0.00058890,0.00018823,0.00000147,0.0005
 8890,0.,0.,0.38819681,0.00002421,0.00043407,0.00040624,0.00505781,-0.0
 0022692,0.00093624,-0.02248450,0.00018713,-0.03437656,0.00394209,-0.00
 021379,0.00474593,-0.00009045,-0.00097652,-0.00031245,0.00024220,0.000
 67866,-0.00016340,0.00008273,0.00021169,-0.00019977,-0.00036209,-0.000
 08962,0.00008122,0.00122047,0.00009000,0.00042023,-0.00083685,-0.00003
 569,0.00028319,-0.03104381,-0.00000251,-0.00042627,-0.00368720,0.00000
 542,-0.00015284,-0.07567931,-0.00000652,0.00853518,-0.07567931,-0.0000
 0652,-0.00853518,-0.02219321,-0.00008954,0.,0.28304432,-0.00014439,-0.
 02254950,-0.03595759,0.00017328,0.00398000,0.00497345,-0.00042973,0.00
 018920,-0.00041379,0.00022362,0.00502737,-0.00092437,0.00007193,-0.000
 32902,0.00008089,-0.00006378,0.00128815,0.00044848,0.00003716,-0.00088
 457,0.00029911,0.00095359,-0.00008987,0.00030370,-0.00067134,0.0002439
 6,0.00016365,-0.00019572,0.00009459,0.00019523,0.00000267,-0.07415279,
 0.00891110,0.00004429,-0.00905722,0.00973514,-0.00000302,-0.03137269,0
 .00044113,-0.00000302,-0.03137269,-0.00044113,-0.00007040,-0.01005538,
 0.,0.00007428,0.26855396,0.00025215,-0.02446164,-0.00473879,-0.0002049
 9,0.00081106,-0.00153020,-0.02449538,-0.00026355,-0.00439998,0.0007941
 8,0.00021119,-0.00161209,-0.00000891,-0.00007482,-0.00003282,0.0000814
 9,-0.00039404,0.00020384,0.00002481,0.00004480,0.00012205,-0.00007204,
 0.00000298,-0.00002633,-0.00040602,-0.00007402,0.00018947,0.00005768,-
 0.00003056,0.00011695,-0.00012251,0.02172136,-0.03073230,0.00004705,-0
 .00032581,0.00196829,0.02080113,0.00013256,-0.03037661,-0.02080113,-0.
 00013256,-0.03037661,0.,0.,-0.04459948,0.,0.,0.32405108,0.00002421,0.0
 0043407,-0.00040624,0.00505781,-0.00022692,-0.00093624,-0.02248450,0.0
 0018713,0.03437656,0.00394209,-0.00021379,-0.00474593,-0.00009045,-0.0
 0097652,0.00031245,0.00008273,0.00021169,0.00019977,0.00024220,0.00067
 866,0.00016340,-0.00036209,-0.00008962,-0.00008122,-0.00083685,-0.0000
 3569,-0.00028319,0.00122047,0.00009000,-0.00042023,-0.00368720,0.00000
 542,0.00015284,-0.03104381,-0.00000251,0.00042627,-0.00812165,-0.00004
 727,-0.00891262,-0.00812165,-0.00004727,0.00891262,0.00507006,0.000022
 55,0.,-0.00770920,-0.00004282,0.,0.28304432,-0.00014439,-0.02254950,0.
 03595759,0.00017328,0.00398000,-0.00497345,-0.00042973,0.00018920,0.00
 041379,0.00022362,0.00502737,0.00092437,0.00007193,-0.00032902,-0.0000
 8089,0.00003716,-0.00088457,-0.00029911,-0.00006378,0.00128815,-0.0004
 4848,0.00095359,-0.00008987,-0.00030370,-0.00019572,0.00009459,-0.0001
 9523,-0.00067134,0.00024396,-0.00016365,0.00004429,-0.00905722,-0.0097
 3514,0.00000267,-0.07415279,-0.00891110,-0.00000075,-0.00360163,-0.000
 15204,-0.00000075,-0.00360163,0.00015204,0.00002318,0.00144668,0.,-0.0
 0004282,-0.00051918,0.,0.00007428,0.26855396,-0.00025215,0.02446164,-0
 .00473879,0.00020499,-0.00081106,-0.00153020,0.02449538,0.00026355,-0.
 00439998,-0.00079418,-0.00021119,-0.00161209,0.00000891,0.00007482,-0.
 00003282,-0.00002481,-0.00004480,0.00012205,-0.00008149,0.00039404,0.0
 0020384,0.00007204,-0.00000298,-0.00002633,-0.00005768,0.00003056,0.00
 011695,0.00040602,0.00007402,0.00018947,-0.00004705,0.00032581,0.00196
 829,0.00012251,-0.02172136,-0.03073230,0.00029595,0.00004379,0.0019654
 0,-0.00029595,-0.00004379,0.00196540,0.,0.,-0.00057433,0.,0.,-0.140207
 77,0.,0.,0.32405108,0.00020890,-0.00010863,-0.00007818,-0.00120206,0.0
 0006310,-0.00018240,0.00148918,0.00025394,0.00137766,-0.00005228,0.000
 52392,-0.00001792,-0.00001196,0.00026546,0.00006622,-0.00003740,-0.000
 16479,0.00000056,0.00000549,-0.00007374,0.00006005,0.00016797,-0.00001
 138,0.00001358,-0.00003574,0.00004600,0.00001990,0.00006368,0.00003945
 ,-0.00003708,0.00864927,0.00006186,0.00008498,0.00109495,-0.00001623,0
 .00001520,-0.00126867,-0.00598578,-0.00038110,-0.00127611,0.00599240,0
 .00043855,0.00052065,0.00001100,-0.00000098,-0.03104381,0.00000267,0.0
 0012251,-0.00368721,0.00004429,0.00004705,0.04542434,-0.00007918,0.002
 27894,0.01968634,-0.00016202,-0.00065115,-0.00267194,0.00107362,0.0002
 5198,0.00252830,-0.00014681,-0.00004630,-0.00022172,0.00006574,-0.0000
 8900,-0.00008230,0.00008264,-0.00082789,-0.00024894,0.00002766,0.00064
 462,-0.00009997,0.00003483,0.00002950,-0.00001857,-0.00013935,-0.00003
 925,-0.00009972,0.00006176,-0.00004668,0.00004277,0.00006186,-0.018036
 24,-0.00410799,-0.00001623,0.00609413,-0.00708292,-0.00186356,-0.00126
 557,-0.00147061,0.00186831,-0.00126930,-0.00146429,0.00000299,-0.00002
 037,0.00078706,-0.00000251,-0.07415279,-0.02172136,0.00000542,-0.00905
 722,-0.00032581,-0.00223229,0.27296407,-0.00002280,0.00291429,-0.01093
 253,0.00004796,0.00003267,0.00170855,-0.00029855,-0.00030214,-0.006409
 80,0.00006954,0.00004283,0.00044796,-0.00001141,0.00002190,0.00005644,
 -0.00000656,0.00048383,0.00008817,-0.00000316,-0.00037386,0.00010046,0
 .00002046,0.00000688,0.00004905,0.00022589,0.00001172,0.00007711,-0.00
 023790,0.00000334,0.00004393,-0.00008498,0.00410799,0.01302555,0.00001
 520,-0.00708292,0.00345431,0.00146117,0.00038835,0.00325194,-0.0014693
 6,0.00033188,0.00325271,0.00000728,0.00321566,0.00081785,0.00042627,-0
 .00891110,-0.03073230,-0.00015284,0.00973514,0.00196829,0.00190935,-0.
 14160603,0.40030846,0.00024577,-0.00105897,0.00249486,-0.00004465,0.00
 014631,-0.00022387,-0.17045249,-0.00219284,0.11803676,-0.02697891,0.00
 098760,0.04214638,0.00002899,-0.00003063,-0.00001962,-0.00004478,-0.00
 006414,0.00004156,-0.00003942,0.00014149,-0.00009789,-0.00050884,0.000
 22764,0.00112396,0.00296007,-0.00001053,0.00143993,-0.00763353,-0.0011
 9890,0.00086914,0.00032453,0.00022958,-0.00111986,-0.00127611,0.001868
 31,-0.00146936,0.02476254,-0.00013355,-0.00376292,0.00577668,0.0000181
 0,-0.00684539,0.00036838,0.00000284,-0.00065790,-0.00812165,-0.0000007
 5,-0.00029595,-0.07567931,-0.00000302,-0.02080113,0.00030342,-0.000229
 86,-0.00108128,0.27311230,-0.00022591,0.00148403,-0.00136439,-0.000522
 69,-0.00005493,0.00001110,-0.00087566,-0.05650138,0.00118177,-0.001076
 53,0.01058797,0.00237924,0.00001290,0.00016775,-0.00001408,-0.00003990
 ,0.00006156,0.00003698,-0.00004796,-0.00003365,-0.00002088,0.00208772,
 0.00010504,-0.00077025,-0.00150516,-0.00007529,-0.00011067,-0.00069369
 ,0.00052381,-0.00067661,0.00062469,0.00029927,0.00037957,0.00599240,-0
 .00126930,0.00033188,-0.00013355,0.02432130,0.00005924,0.00001810,0.00
 105806,-0.00001899,0.00000674,-0.00000797,0.00000701,-0.00004727,-0.00
 360163,-0.00004379,-0.00000652,-0.03137269,-0.00013256,-0.00062360,0.0
 0031838,-0.00040832,0.00229071,0.04608865,-0.00028345,0.00027257,-0.00
 643432,0.00002942,-0.00006348,0.00045710,0.12308493,0.00238663,-0.2851
 0844,0.01180390,0.00124164,-0.01092037,0.00000570,-0.00001696,0.000049
 25,0.00000333,0.00024457,0.00004471,0.00001317,-0.00023117,0.00007663,
 -0.00037681,-0.00082997,-0.00057327,0.00028490,-0.00121201,0.00048694,
 0.00062297,0.00066121,0.00130997,-0.00040915,0.00109732,0.00299312,0.0
 0043855,-0.00146429,0.00325271,0.00376292,-0.00005924,-0.09040494,-0.0
 0684539,-0.00001899,0.00341134,-0.00055974,-0.00000095,0.00145847,0.00
 891262,0.00015204,0.00196540,-0.00853518,-0.00044113,-0.03037661,-0.00
 037786,-0.00113507,0.00299368,-0.14188481,-0.00195650,0.39957975,-0.00
 099539,-0.00324369,0.,-0.00043698,0.00042898,0.,-0.00264189,-0.0000491
 2,0.,0.00017937,-0.00000201,0.,-0.00002149,0.00008451,0.,0.00004135,-0
 .00000453,0.00003913,0.00004135,-0.00000453,-0.00003913,-0.00001265,0.
 00002591,0.,-0.00002482,-0.00000949,0.00002936,-0.00002482,-0.00000949
 ,-0.00002936,0.00148918,0.00107362,0.00029855,0.00148918,0.00107362,-0
 .00029855,0.00228356,0.00010647,-0.00292587,-0.17045249,-0.00087566,0.
 12308493,0.00002919,-0.00002173,-0.00073943,-0.02248450,-0.00042973,0.
 02449538,-0.02248450,-0.00042973,-0.02449538,0.00153787,-0.00115818,0.
 00028174,0.00228356,0.00010647,0.00292587,0.60937666,-0.00021592,-0.00
 112613,0.,-0.00025433,0.00016481,0.,-0.00004912,0.00054554,0.,0.000008
 25,0.00004392,0.,-0.00003699,-0.00009670,0.,0.00001301,-0.00002344,0.0
 0001604,0.00001301,-0.00002344,-0.00001604,-0.00000118,0.00000913,0.,0
 .00000988,-0.00000764,0.00000671,0.00000988,-0.00000764,-0.00000671,0.
 00025394,0.00025198,0.00030214,0.00025394,0.00025198,-0.00030214,0.000
 07353,0.00020831,-0.00002800,-0.00219284,-0.05650138,0.00238663,-0.000
 00494,0.00003616,-0.00003513,0.00018713,0.00018920,0.00026355,0.000187
 13,0.00018920,-0.00026355,-0.00031598,0.00028732,-0.00031445,0.0000735
 3,0.00020831,0.00002800,0.01069222,0.18912640,0.,0.,0.01416068,0.,0.,-
 0.00122477,0.,0.,0.02830410,0.,0.,-0.00351898,0.,0.,0.00017437,-0.0001
 4655,-0.00036898,-0.00009663,0.00014655,0.00036898,-0.00009663,0.,0.,-
 0.00010281,-0.00097389,0.00003472,-0.00029829,0.00097389,-0.00003472,-
 0.00029829,-0.00137766,-0.00252830,-0.00640980,0.00137766,0.00252830,-
 0.00640980,-0.01908252,-0.00008138,-0.01065032,0.11803676,0.00118177,-
 0.28510844,-0.00105597,0.00001006,-0.00219492,0.03437656,0.00041379,-0
 .00439998,-0.03437656,-0.00041379,-0.00439998,-0.00142854,0.00248945,-
 0.00644070,0.01908252,0.00008138,-0.01065031,0.,0.,0.65581374,0.000208
 90,-0.00010863,0.00007818,-0.00120206,0.00006310,0.00018240,0.00148918
 ,0.00025394,-0.00137766,-0.00005228,0.00052392,0.00001792,-0.00001196,
 0.00026546,-0.00006622,0.00000549,-0.00007374,-0.00006005,-0.00003740,
 -0.00016479,-0.00000056,0.00016797,-0.00001138,-0.00001358,0.00006368,
 0.00003945,0.00003708,-0.00003574,0.00004600,-0.00001990,0.00109495,-0
 .00001623,-0.00001520,0.00864927,0.00006186,-0.00008498,0.00030342,-0.
 00062360,0.00037786,0.00032453,0.00062469,-0.00040915,0.00007089,-0.00
 001649,0.00000547,-0.00368721,0.00004429,-0.00004705,-0.03104381,0.000
 00267,-0.00012251,0.02475737,0.00015165,0.00007130,-0.00126867,-0.0059
 8578,0.00038110,0.00153787,-0.00031598,0.00142854,0.04542434,-0.000079
 18,0.00227894,-0.01968634,-0.00016202,-0.00065115,0.00267194,0.0010736
 2,0.00025198,-0.00252830,-0.00014681,-0.00004630,0.00022172,0.00006574
 ,-0.00008900,0.00008230,0.00002766,0.00064462,0.00009997,0.00008264,-0
 .00082789,0.00024894,0.00003483,0.00002950,0.00001857,0.00006176,-0.00
 004668,-0.00004277,-0.00013935,-0.00003925,0.00009972,-0.00001623,0.00
 609413,0.00708292,0.00006186,-0.01803624,0.00410799,-0.00022986,0.0003
 1838,0.00113507,0.00022958,0.00029927,0.00109732,-0.00000701,0.0009033
 4,0.00060793,0.00000542,-0.00905722,0.00032581,-0.00000251,-0.07415279
 ,0.02172136,0.00015165,0.02528304,0.00359959,-0.00186356,-0.00126557,0
 .00147061,-0.00115818,0.00028732,-0.00248945,-0.00223229,0.27296407,0.
 00002280,-0.00291429,-0.01093253,-0.00004796,-0.00003267,0.00170855,0.
 00029855,0.00030214,-0.00640980,-0.00006954,-0.00004283,0.00044796,0.0
 0001141,-0.00002190,0.00005644,0.00000316,0.00037386,0.00010046,0.0000
 0656,-0.00048383,0.00008817,-0.00002046,-0.00000688,0.00004905,0.00023
 790,-0.00000334,0.00004393,-0.00022589,-0.00001172,0.00007711,-0.00001
 520,0.00708292,0.00345431,0.00008498,-0.00410799,0.01302555,0.00108128
 ,0.00040832,0.00299368,-0.00111986,0.00037957,0.00299312,-0.00000883,0
 .00159781,0.00139717,0.00015284,-0.00973514,0.00196829,-0.00042627,0.0
 0891110,-0.03073230,-0.00007130,-0.00359959,-0.08946943,-0.00146117,-0
 .00038835,0.00325194,-0.00028174,0.00031445,-0.00644070,-0.00190935,0.
 14160603,0.40030846,0.00028339,0.00113801,-0.00245329,-0.00003208,-0.0
 0020103,0.00030876,0.00228356,0.00007353,-0.01908252,-0.00063479,0.000
 15736,0.00256488,0.00001450,-0.00005911,-0.00002945,-0.00002007,0.0000
 8638,0.00001975,-0.00006421,-0.00008566,-0.00000279,-0.00008194,-0.000
 05933,0.00007988,0.00061761,-0.00002522,0.00009332,-0.00079317,-0.0000
 8385,0.00024079,0.00030342,-0.00022986,0.00108128,-0.00126867,-0.00186
 356,0.00146117,0.00577668,0.00001810,0.00684539,0.02476254,-0.00013355
 ,0.00376292,0.00036838,0.00000284,0.00065790,-0.00812165,-0.00000075,0
 .00029595,-0.07567931,-0.00000302,0.02080113,0.00032453,0.00022958,0.0
 0111986,-0.01766302,-0.00006872,0.00400955,-0.17045249,-0.00219284,-0.
 11803676,-0.00127611,0.00186831,0.00146936,0.27311230,0.00028190,0.001
 53366,-0.00141010,0.00056684,-0.00006984,-0.00005189,0.00010647,0.0002
 0831,-0.00008138,-0.00006314,-0.00119587,-0.00018063,-0.00002852,0.000
 03294,-0.00005166,0.00003019,0.00005644,0.00002253,-0.00003971,0.00010
 115,0.00002587,-0.00026345,-0.00001175,0.00006592,0.00007243,0.0000057
 0,0.00005930,0.00016455,-0.00003727,-0.00000022,-0.00062360,0.00031838
 ,0.00040832,-0.00598578,-0.00126557,0.00038835,0.00001810,0.00105806,0
 .00001899,-0.00013355,0.02432130,-0.00005924,0.00000674,-0.00000797,-0
 .00000701,-0.00004727,-0.00360163,0.00004379,-0.00000652,-0.03137269,0
 .00013256,0.00062469,0.00029927,-0.00037957,-0.00006872,0.00868848,0.0
 0008424,-0.00087566,-0.05650138,-0.00118177,0.00599240,-0.00126930,-0.
 00033188,0.00229071,0.04608865,0.00030231,0.00025432,-0.00646565,-0.00
 004487,-0.00008009,0.00061002,-0.00292587,-0.00002800,-0.01065031,-0.0
 0003205,0.00004806,0.00165418,-0.00000768,0.00003258,-0.00009393,0.000
 06437,0.00017814,0.00003927,-0.00008218,-0.00019861,0.00005922,-0.0000
 1893,-0.00001063,0.00005311,0.00035942,-0.00000447,0.00009856,-0.00046
 475,-0.00000493,0.00008668,0.00037786,0.00113507,0.00299368,-0.0003811
 0,-0.00147061,0.00325194,0.00684539,0.00001899,0.00341134,-0.00376292,
 0.00005924,-0.09040494,0.00055974,0.00000095,0.00145847,-0.00891262,-0
 .00015204,0.00196540,0.00853518,0.00044113,-0.03037661,0.00040915,-0.0
 0109732,0.00299312,-0.00400955,-0.00008424,0.01279759,-0.12308493,-0.0
 0238663,-0.28510844,-0.00043855,0.00146429,0.00325271,0.14188481,0.001
 95650,0.39957975,0.00004136,0.00000816,0.00000099,-0.00005397,-0.00001
 162,-0.00002538,0.00002919,-0.00000494,-0.00105597,-0.00005818,-0.0000
 1441,0.00001043,0.00002148,-0.00001282,0.00002670,-0.00002977,0.000019
 50,0.00001671,0.00000039,-0.00000403,-0.00001352,0.00002161,0.00000205
 ,-0.00002432,0.00006146,-0.00001724,-0.00001831,-0.00000499,0.00003067
 ,0.00003859,0.00007089,-0.00000701,-0.00000883,0.00052065,0.00000299,0
 .00000728,0.00036838,0.00000674,0.00055974,0.00036838,0.00000674,-0.00
 055974,-0.00067265,-0.00000380,0.,0.00507006,0.00002318,0.,-0.02219321
 ,-0.00007040,0.,0.00007089,-0.00000701,0.00000883,-0.00003344,-0.00000
 709,0.00353363,0.00002919,-0.00000494,0.00105597,0.00052065,0.00000299
 ,-0.00000728,-0.00003344,-0.00000709,-0.00353363,0.72728767,0.00002037
 ,0.00052242,-0.00232855,-0.00003169,-0.00009065,0.00002015,-0.00002173
 ,0.00003616,0.00001006,0.00002179,-0.00003747,0.00004280,-0.00001532,0
 .00004676,-0.00006295,0.00007476,0.00016630,-0.00002367,-0.00003834,-0
 .00001270,0.00008248,0.00004256,0.00003681,-0.00004389,-0.00004383,-0.
 00005422,-0.00003093,-0.00000742,-0.00000287,0.00002791,-0.00001649,0.
 00090334,0.00159781,0.00001100,-0.00002037,0.00321566,0.00000284,-0.00
 000797,0.00000095,0.00000284,-0.00000797,-0.00000095,-0.00000380,0.000
 00680,0.,0.00002255,0.00144668,0.,-0.00008954,-0.01005538,0.,-0.000016
 49,0.00090334,-0.00159781,0.00000374,0.00061381,-0.00000582,-0.0000217
 3,0.00003616,-0.00001006,0.00001100,-0.00002037,-0.00321566,0.00000374
 ,0.00061381,0.00000582,0.00424858,-0.00474763,0.00004150,-0.00088352,-
 0.00197487,-0.00006388,0.00018926,0.00023253,-0.00073943,-0.00003513,-
 0.00219492,0.00016405,0.00004350,0.00030134,-0.00002500,0.00003650,-0.
 00000964,0.00004618,0.00012331,0.00002077,0.00000702,-0.00005982,0.000
 00140,0.00003009,0.00001865,-0.00000098,0.00010511,-0.00002640,0.00002
 864,-0.00007495,-0.00000284,-0.00000422,0.00000547,0.00060793,0.001397
 17,-0.00000098,0.00078706,0.00081784,0.00065790,-0.00000701,0.00145847
 ,-0.00065790,0.00000701,0.00145847,0.,0.,-0.00201673,0.,0.,-0.00057433
 ,0.,0.,-0.04459948,-0.00000547,-0.00060793,0.00139717,0.00018823,0.000
 00147,0.00058890,0.00073943,0.00003513,-0.00219492,0.00000098,-0.00078
 706,0.00081785,-0.00018823,-0.00000147,0.00058890,0.,0.,0.38819681,0.0
 0054938,0.00004952,0.,0.00004519,-0.00000805,0.,-0.00099539,-0.0002159
 2,0.,0.00013325,-0.00018450,0.,0.00000853,0.00000042,0.,-0.00000746,-0
 .00000956,-0.00000708,-0.00000746,-0.00000956,0.00000708,-0.00004351,0
 .00002236,0.,-0.00005030,-0.00004919,-0.00004774,-0.00005030,-0.000049
 19,0.00004774,0.00020890,-0.00007918,0.00002280,0.00020890,-0.00007918
 ,-0.00002280,0.00028339,0.00028190,0.00030231,0.00024577,-0.00022591,-
 0.00028345,0.00004136,0.00002037,0.00004150,0.00002421,-0.00014439,-0.
 00025215,0.00002421,-0.00014439,0.00025215,-0.05683626,0.00208993,-0.0
 0233632,0.00028339,0.00028190,-0.00030231,-0.00110702,0.00021570,0.,-0
 .05683626,0.00208993,0.00233632,0.00024577,-0.00022591,0.00028345,0.00
 004136,0.00002037,-0.00004150,0.18988681,0.00004952,-0.00266674,0.,0.0
 0000703,0.00018627,0.,-0.00324369,-0.00112613,0.,0.00045160,-0.0001986
 8,0.,-0.00002711,-0.00001226,0.,0.00000892,-0.00002196,0.00002767,0.00
 000892,-0.00002196,-0.00002768,-0.00000253,-0.00001481,0.,0.00005345,-
 0.00001921,0.00009413,0.00005345,-0.00001921,-0.00009413,-0.00010863,0
 .00227894,-0.00291429,-0.00010863,0.00227894,0.00291429,0.00113801,0.0
 0153366,0.00025432,-0.00105897,0.00148403,0.00027257,0.00000816,0.0005
 2242,-0.00088352,0.00043407,-0.02254950,0.02446163,0.00043407,-0.02254
 950,-0.02446163,0.00081670,-0.17053485,0.12320789,0.00113801,0.0015336
 6,-0.00025432,0.00324583,-0.00100965,0.,0.00081670,-0.17053485,-0.1232
 0789,-0.00105897,0.00148403,-0.00027257,0.00000816,0.00052242,0.000883
 52,-0.01040937,0.60793000,0.,0.,0.02913146,0.,0.,-0.00368817,0.,0.,0.0
 1416068,0.,0.,-0.00088586,0.,0.,-0.00010777,-0.00003283,-0.00102129,-0
 .00030641,0.00003283,0.00102129,-0.00030641,0.,0.,-0.00011975,-0.00045
 829,-0.00000673,-0.00012862,0.00045829,0.00000673,-0.00012862,0.000078
 18,-0.01968634,-0.01093253,-0.00007818,0.01968634,-0.01093253,-0.00245
 329,-0.00141010,-0.00646565,0.00249486,-0.00136439,-0.00643432,0.00000
 099,-0.00232855,-0.00197487,-0.00040624,0.03595759,-0.00473879,0.00040
 624,-0.03595759,-0.00473879,-0.00113138,0.11720849,-0.28507622,0.00245
 329,0.00141010,-0.00646565,0.,0.,0.01416443,0.00113138,-0.11720849,-0.
 28507622,-0.00249486,0.00136439,-0.00643432,-0.00000099,0.00232855,-0.
 00197487,0.,0.,0.65423670,0.00013325,0.00045160,0.,0.00000287,-0.00001
 361,0.,0.00017937,0.00000825,0.,-0.00005037,0.00000570,0.,0.00001791,-
 0.00003240,0.,-0.00001317,-0.00001203,-0.00000503,-0.00001317,-0.00001
 203,0.00000503,-0.00001923,-0.00001008,0.,-0.00002097,0.00000200,-0.00
 001125,-0.00002097,0.00000200,0.00001125,-0.00005228,-0.00014681,-0.00
 006954,-0.00005228,-0.00014681,0.00006954,-0.00063479,-0.00006314,-0.0
 0003205,-0.02697891,-0.00107653,0.01180390,-0.00005818,0.00002179,0.00
 016405,0.00394209,0.00022362,-0.00079418,0.00394209,0.00022362,0.00079
 418,-0.00006780,0.00020416,-0.00008601,-0.00063479,-0.00006314,0.00003
 205,-0.19191078,-0.00453212,0.,-0.00006780,0.00020416,0.00008601,-0.02
 697891,-0.00107653,-0.01180390,-0.00005818,0.00002179,-0.00016405,0.00
 016297,-0.00043066,0.,0.45593392,-0.00018450,-0.00019868,0.,-0.0001061
 2,-0.00005470,0.,-0.00000201,0.00004392,0.,0.00000570,0.00035068,0.,0.
 00001460,0.00002901,0.,-0.00000650,-0.00002138,-0.00000875,-0.00000650
 ,-0.00002138,0.00000875,0.00007704,0.00000255,0.,-0.00003917,0.0000089
 7,-0.00001435,-0.00003917,0.00000897,0.00001435,0.00052392,-0.00004630
 ,-0.00004283,0.00052392,-0.00004630,0.00004283,0.00015736,-0.00119587,
 0.00004806,0.00098760,0.01058797,0.00124164,-0.00001441,-0.00003747,0.
 00004350,-0.00021379,0.00502736,-0.00021119,-0.00021379,0.00502736,0.0
 0021119,-0.00056212,-0.00002506,0.00005173,0.00015736,-0.00119587,-0.0
 0004806,-0.00070140,-0.07673020,0.,-0.00056212,-0.00002506,-0.00005173
 ,0.00098760,0.01058797,-0.00124164,-0.00001441,-0.00003747,-0.00004350
 ,0.00025742,-0.00043878,0.,-0.01268214,0.51492201,0.,0.,-0.00088586,0.
 ,0.,0.00012133,0.,0.,-0.00351898,0.,0.,0.00054447,0.,0.,0.00003583,-0.
 00001334,0.00003621,0.00000064,0.00001334,-0.00003621,0.00000064,0.,0.
 ,0.00002504,0.00014061,0.00000362,0.00004039,-0.00014061,-0.00000362,0
 .00004039,0.00001792,0.00022172,0.00044796,-0.00001792,-0.00022172,0.0
 0044796,0.00256488,-0.00018063,0.00165418,0.04214638,0.00237924,-0.010
 92037,0.00001043,0.00004280,0.00030134,-0.00474593,0.00092437,-0.00161
 209,0.00474593,-0.00092437,-0.00161209,-0.00004095,-0.00030241,0.00059
 995,-0.00256488,0.00018063,0.00165418,0.,0.,-0.06520306,0.00004095,0.0
 0030241,0.00059995,-0.04214638,-0.00237924,-0.01092037,-0.00001043,-0.
 00004280,0.00030134,0.,0.,-0.00120766,0.,0.,0.57879269,0.00004519,0.00
 000703,0.,0.00035270,-0.00000780,0.,-0.00043698,-0.00025433,0.,0.00000
 287,-0.00010612,0.,0.00000239,-0.00007821,0.,0.00000879,0.00003907,0.0
 0001420,0.00000879,0.00003907,-0.00001420,-0.00003161,0.00000841,0.,0.
 00000100,-0.00001559,-0.00001029,0.00000100,-0.00001559,0.00001029,-0.
 00120206,-0.00016202,-0.00004796,-0.00120206,-0.00016202,0.00004796,-0
 .00003208,0.00056684,-0.00004487,-0.00004465,-0.00052269,0.00002942,-0
 .00005397,-0.00003169,-0.00006388,0.00505781,0.00017328,0.00020499,0.0
 0505781,0.00017328,-0.00020499,0.01063836,-0.00093420,-0.00121744,-0.0
 0003208,0.00056684,0.00004487,-0.00020389,0.00018105,0.,0.01063836,-0.
 00093420,0.00121744,-0.00004465,-0.00052269,-0.00002942,-0.00005397,-0
 .00003169,0.00006388,-0.07675383,0.00066109,0.,-0.00005341,0.00010492,
 0.,0.51464925,-0.00000805,0.00018627,0.,-0.00000780,-0.00005376,0.,0.0
 0042898,0.00016481,0.,-0.00001361,-0.00005470,0.,0.00001061,-0.0000193
 5,0.,-0.00000158,-0.00002145,-0.00001092,-0.00000158,-0.00002145,0.000
 01092,-0.00001639,0.00000266,0.,-0.00002082,0.00000291,-0.00002467,-0.
 00002082,0.00000291,0.00002467,0.00006310,-0.00065115,-0.00003267,0.00
 006310,-0.00065115,0.00003267,-0.00020103,-0.00006984,-0.00008009,0.00
 014631,-0.00005493,-0.00006348,-0.00001162,-0.00009065,0.00018926,-0.0
 0022691,0.00398000,-0.00081106,-0.00022691,0.00398000,0.00081106,0.001
 05969,-0.02714791,0.01189358,-0.00020103,-0.00006984,0.00008009,-0.000
 45038,0.00013290,0.,0.00105969,-0.02714792,-0.01189358,0.00014631,-0.0
 0005493,0.00006348,-0.00001162,-0.00009065,-0.00018926,0.00443676,-0.1
 9114974,0.,0.00001515,0.00000379,0.,0.01247224,0.45515615,0.,0.,-0.003
 68817,0.,0.,0.00057217,0.,0.,-0.00122477,0.,0.,0.00012133,0.,0.,0.0000
 2597,-0.00000396,0.00014973,0.00004179,0.00000396,-0.00014973,0.000041
 79,0.,0.,0.00001421,0.00004279,0.00000584,0.00001195,-0.00004279,-0.00
 000584,0.00001195,0.00018240,0.00267194,0.00170855,-0.00018240,-0.0026
 7194,0.00170855,0.00030876,-0.00005189,0.00061002,-0.00022387,0.000011
 10,0.00045710,-0.00002538,0.00002015,0.00023253,-0.00093624,-0.0049734
 5,-0.00153020,0.00093624,0.00497345,-0.00153021,-0.00234819,0.04220540
 ,-0.01089537,-0.00030876,0.00005189,0.00061002,0.,0.,-0.00090797,0.002
 34819,-0.04220540,-0.01089537,0.00022387,-0.00001110,0.00045710,0.0000
 2538,-0.00002015,0.00023253,0.,0.,-0.06501053,0.,0.,0.00012125,0.,0.,0
 .57902991,0.00000853,-0.00002711,0.,0.00000239,0.00001061,0.,-0.000021
 49,-0.00003699,0.,0.00001791,0.00001460,0.,-0.00000494,0.00000186,0.,0
 .00000068,0.00000361,0.00000110,0.00000068,0.00000361,-0.00000110,0.00
 000352,0.00000226,0.,0.00000429,0.00000005,0.00000226,0.00000429,0.000
 00005,-0.00000226,-0.00001196,0.00006574,0.00001141,-0.00001196,0.0000
 6574,-0.00001141,0.00001450,-0.00002852,-0.00000768,0.00002899,0.00001
 290,0.00000570,0.00002148,-0.00001532,-0.00002500,-0.00009045,0.000071
 93,0.00000891,-0.00009045,0.00007193,-0.00000891,0.00011460,-0.0002010
 7,0.00080986,0.00001450,-0.00002852,0.00000768,-0.00001342,-0.00002436
 ,0.,0.00011460,-0.00020107,-0.00080986,0.00002899,0.00001290,-0.000005
 70,0.00002148,-0.00001532,0.00002500,0.00052620,-0.00160945,0.,0.00000
 236,-0.00000900,0.,-0.27596860,0.07104705,0.,0.30130467,0.00000042,-0.
 00001226,0.,-0.00007821,-0.00001935,0.,0.00008451,-0.00009670,0.,-0.00
 003240,0.00002901,0.,0.00000186,0.00001295,0.,-0.00000234,-0.00001520,
 -0.00000775,-0.00000234,-0.00001520,0.00000775,-0.00000512,0.00002763,
 0.,-0.00004306,-0.00003228,-0.00003199,-0.00004306,-0.00003228,0.00003
 199,0.00026546,-0.00008900,-0.00002190,0.00026546,-0.00008900,0.000021
 90,-0.00005911,0.00003294,0.00003258,-0.00003063,0.00016775,-0.0000169
 6,-0.00001282,0.00004676,0.00003650,-0.00097652,-0.00032902,0.00007482
 ,-0.00097652,-0.00032902,-0.00007482,-0.00209960,-0.00054459,-0.000384
 89,-0.00005911,0.00003294,-0.00003258,0.00000537,-0.00004503,0.,-0.002
 09960,-0.00054459,0.00038489,-0.00003063,0.00016775,0.00001696,-0.0000
 1282,0.00004676,-0.00003650,0.03441753,-0.01363368,0.,0.00001722,-0.00
 003104,0.,0.07375199,-0.06254081,0.,-0.07917876,0.07151256,0.,0.,-0.00
 010777,0.,0.,0.00002597,0.,0.,0.00017437,0.,0.,0.00003583,0.,0.,-0.000
 00091,0.00000026,0.00000570,-0.00000004,-0.00000026,-0.00000570,-0.000
 00004,0.,0.,-0.00000513,-0.00001414,-0.00000744,-0.00000787,0.00001414
 ,0.00000744,-0.00000787,-0.00006622,0.00008230,0.00005644,0.00006622,-
 0.00008230,0.00005644,-0.00002945,-0.00005166,-0.00009394,-0.00001962,
 -0.00001408,0.00004925,0.00002670,-0.00006295,-0.00000964,0.00031245,-
 0.00008089,-0.00003282,-0.00031245,0.00008089,-0.00003282,0.00076385,0
 .00112907,-0.00055662,0.00002945,0.00005166,-0.00009393,0.,0.,-0.00011
 943,-0.00076385,-0.00112907,-0.00055662,0.00001962,0.00001408,0.000049
 25,-0.00002670,0.00006295,-0.00000964,0.,0.,-0.00034134,0.,0.,0.000014
 14,0.,0.,-0.04018252,0.,0.,0.04184823,-0.00000746,0.00000892,-0.000032
 83,0.00000879,-0.00000158,-0.00000396,0.00004135,0.00001301,-0.0001465
 5,-0.00001317,-0.00000650,-0.00001334,0.00000068,-0.00000234,0.0000002
 6,-0.00000240,-0.00000021,-0.00000299,-0.00000109,-0.00000065,0.000001
 46,-0.00000268,-0.00000384,0.00000196,0.00000891,0.00000685,0.00000470
 ,-0.00000742,0.00000188,0.00000240,0.00000549,0.00002766,0.00000316,-0
 .00003740,0.00008264,-0.00000656,-0.00002007,0.00003019,0.00006437,-0.
 00004478,-0.00003990,0.00000333,-0.00002977,0.00007476,0.00004618,0.00
 008273,0.00003716,-0.00002481,0.00024220,-0.00006378,0.00008149,-0.000
 06509,-0.00000228,0.00118181,-0.00006421,-0.00003971,0.00008218,-0.000
 02077,0.00005220,0.00000811,0.00053285,0.00115305,0.00064620,-0.000039
 42,-0.00004796,-0.00001317,0.00000039,-0.00003834,-0.00000702,-0.00016
 746,0.00441043,0.00025744,0.00000255,0.00001533,-0.00000614,-0.0951747
 4,-0.04480219,-0.09594789,-0.01300307,-0.01157079,-0.02581536,0.101533
 21,-0.00000956,-0.00002196,-0.00102129,0.00003907,-0.00002145,0.000149
 73,-0.00000453,-0.00002344,-0.00036898,-0.00001203,-0.00002138,0.00003
 621,0.00000361,-0.00001520,0.00000570,-0.00000021,0.00004254,0.0000117
 5,-0.00000065,-0.00004209,0.00001306,-0.00000901,0.00000043,0.00000292
 ,0.00000855,-0.00000121,0.00000031,-0.00001540,-0.00000028,0.00000577,
 -0.00007374,0.00064462,0.00037386,-0.00016479,-0.00082789,0.00048383,0
 .00008638,0.00005644,0.00017814,-0.00006414,0.00006156,0.00024457,0.00
 001950,0.00016630,0.00012331,0.00021169,-0.00088457,-0.00004480,0.0006
 7866,0.00128815,-0.00039404,0.00150542,0.00292876,0.00023007,-0.000085
 66,0.00010115,0.00019861,-0.00005411,-0.00005097,-0.00046705,0.0007048
 4,-0.00765936,-0.00061085,0.00014149,-0.00003365,0.00023117,-0.0000040
 3,-0.00001270,0.00005982,-0.01614944,-0.01117824,-0.02898736,0.0000204
 7,0.00000159,0.00004335,-0.04254159,-0.07689941,-0.07327006,0.00497592
 ,0.00322346,0.00789009,0.04504005,0.08537791,-0.00000708,0.00002768,-0
 .00030641,0.00001420,-0.00001092,0.00004179,0.00003913,0.00001604,-0.0
 0009663,-0.00000503,-0.00000875,0.00000064,0.00000110,-0.00000775,-0.0
 0000004,-0.00000299,0.00001175,-0.00000268,-0.00000146,-0.00001306,0.0
 0000498,-0.00000193,-0.00000634,0.00000092,0.00000925,0.00000587,0.000
 00253,0.00000279,0.00000538,0.00000024,-0.00006005,0.00009997,0.000100
 46,0.00000056,-0.00024894,0.00008817,0.00001975,0.00002253,0.00003927,
 0.00004156,0.00003698,0.00004471,0.00001671,-0.00002367,0.00002077,0.0
 0019977,-0.00029911,0.00012205,-0.00016340,0.00044848,0.00020384,0.000
 10655,0.00145477,0.00046373,0.00000279,-0.00002587,0.00005922,-0.00009
 348,-0.00004996,-0.00012690,-0.00066925,-0.00086944,0.00127174,0.00009
 789,0.00002088,0.00007663,0.00001352,-0.00008248,0.00000140,0.00111679
 ,0.00278493,-0.00236010,0.00002457,-0.00000973,0.00001180,-0.09699679,
 -0.07763068,-0.22525122,0.00290287,-0.00048751,-0.00006697,0.10649719,
 0.08474843,0.24235642,-0.00000746,0.00000892,0.00003283,0.00000879,-0.
 00000158,0.00000396,0.00004135,0.00001301,0.00014655,-0.00001317,-0.00
 000650,0.00001334,0.00000068,-0.00000234,-0.00000026,-0.00000109,-0.00
 000065,-0.00000146,-0.00000240,-0.00000021,0.00000299,-0.00000268,-0.0
 0000384,-0.00000196,-0.00000742,0.00000188,-0.00000240,0.00000891,0.00
 000685,-0.00000470,-0.00003740,0.00008264,0.00000656,0.00000549,0.0000
 2766,-0.00000316,-0.00006421,-0.00003971,-0.00008218,-0.00003942,-0.00
 004796,0.00001317,0.00000039,-0.00003834,0.00000702,0.00024220,-0.0000
 6378,-0.00008149,0.00008273,0.00003716,0.00002481,0.00053285,0.0011530
 5,-0.00064620,-0.00002007,0.00003019,-0.00006437,-0.00002077,0.0000522
 0,-0.00000811,-0.00006509,-0.00000228,-0.00118181,-0.00004478,-0.00003
 990,-0.00000333,-0.00002977,0.00007476,-0.00004618,-0.00016746,0.00441
 043,-0.00025744,0.00000255,0.00001533,0.00000614,-0.09517474,-0.044802
 19,0.09594789,-0.01300307,-0.01157079,0.02581536,0.00623874,0.00573064
 ,-0.01310704,0.10153321,-0.00000956,-0.00002196,0.00102129,0.00003907,
 -0.00002145,-0.00014973,-0.00000453,-0.00002344,0.00036898,-0.00001203
 ,-0.00002138,-0.00003621,0.00000361,-0.00001520,-0.00000570,-0.0000006
 5,-0.00004209,-0.00001306,-0.00000021,0.00004254,-0.00001175,-0.000009
 01,0.00000043,-0.00000292,-0.00001540,-0.00000028,-0.00000577,0.000008
 55,-0.00000121,-0.00000031,-0.00016479,-0.00082789,-0.00048383,-0.0000
 7374,0.00064462,-0.00037386,-0.00008566,0.00010115,-0.00019861,0.00014
 149,-0.00003365,-0.00023117,-0.00000403,-0.00001270,-0.00005982,0.0006
 7866,0.00128815,0.00039404,0.00021169,-0.00088457,0.00004480,0.0007048
 4,-0.00765936,0.00061085,0.00008638,0.00005644,-0.00017814,-0.00005411
 ,-0.00005097,0.00046705,0.00150542,0.00292876,-0.00023007,-0.00006414,
 0.00006156,-0.00024457,0.00001950,0.00016630,-0.00012331,-0.01614944,-
 0.01117824,0.02898736,0.00002047,0.00000159,-0.00004335,-0.04254159,-0
 .07689941,0.07327006,0.00497592,0.00322346,-0.00789009,0.00573064,0.00
 397967,-0.01000560,0.04504005,0.08537791,0.00000708,-0.00002767,-0.000
 30641,-0.00001420,0.00001092,0.00004179,-0.00003913,-0.00001604,-0.000
 09663,0.00000503,0.00000875,0.00000064,-0.00000110,0.00000775,-0.00000
 004,0.00000146,0.00001306,0.00000498,0.00000299,-0.00001175,-0.0000026
 8,0.00000193,0.00000634,0.00000092,-0.00000279,-0.00000538,0.00000024,
 -0.00000925,-0.00000587,0.00000253,-0.00000056,0.00024894,0.00008817,0
 .00006005,-0.00009997,0.00010046,-0.00000279,0.00002587,0.00005922,-0.
 00009789,-0.00002088,0.00007663,-0.00001352,0.00008248,0.00000140,0.00
 016340,-0.00044848,0.00020384,-0.00019977,0.00029911,0.00012205,0.0006
 6925,0.00086944,0.00127174,-0.00001975,-0.00002253,0.00003927,0.000093
 48,0.00004996,-0.00012690,-0.00010655,-0.00145477,0.00046373,-0.000041
 56,-0.00003698,0.00004471,-0.00001671,0.00002367,0.00002077,-0.0011167
 9,-0.00278493,-0.00236010,-0.00002457,0.00000973,0.00001180,0.09699679
 ,0.07763068,-0.22525122,-0.00290287,0.00048751,-0.00006697,0.01310704,
 0.01000560,-0.01672273,-0.10649719,-0.08474843,0.24235642,-0.00004351,
 -0.00000253,0.,-0.00003161,-0.00001639,0.,-0.00001265,-0.00000118,0.,-
 0.00001923,0.00007704,0.,0.00000352,-0.00000512,0.,-0.00000268,-0.0000
 0901,-0.00000193,-0.00000268,-0.00000901,0.00000193,0.00001262,-0.0000
 0169,0.,-0.00001516,0.00000245,-0.00000758,-0.00001516,0.00000245,0.00
 000758,0.00016797,0.00003483,-0.00002046,0.00016797,0.00003483,0.00002
 046,-0.00008194,-0.00026345,-0.00001893,-0.00050884,0.00208772,-0.0003
 7681,0.00002161,0.00004256,0.00003009,-0.00036209,0.00095359,0.0000720
 4,-0.00036209,0.00095359,-0.00007204,0.00003496,0.00006144,0.00003287,
 -0.00008194,-0.00026345,0.00001893,-0.01367369,-0.03441498,0.,0.000034
 96,0.00006144,-0.00003287,-0.00050884,0.00208772,0.00037681,0.00002161
 ,0.00004256,-0.00003009,-0.00009504,-0.00008418,0.,-0.06253834,-0.0736
 6839,0.,0.00002882,0.00003310,0.,0.00002794,0.00000487,0.,-0.00003225,
 0.00004335,0.00003184,-0.00003225,0.00004335,-0.00003184,0.07151467,0.
 00002236,-0.00001481,0.,0.00000841,0.00000266,0.,0.00002591,0.00000913
 ,0.,-0.00001008,0.00000255,0.,0.00000226,0.00002763,0.,-0.00000384,0.0
 0000043,-0.00000634,-0.00000384,0.00000043,0.00000634,-0.00000169,-0.0
 0000512,0.,-0.00000346,0.00000062,-0.00000078,-0.00000346,0.00000062,0
 .00000078,-0.00001138,0.00002950,-0.00000688,-0.00001138,0.00002950,0.
 00000688,-0.00005933,-0.00001175,-0.00001063,0.00022764,0.00010504,-0.
 00082997,0.00000205,0.00003681,0.00001865,-0.00008962,-0.00008987,-0.0
 0000298,-0.00008962,-0.00008987,0.00000298,0.00002820,0.00001214,0.000
 00752,-0.00005933,-0.00001175,0.00001063,0.00152540,0.00054046,0.,0.00
 002820,0.00001214,-0.00000752,0.00022764,0.00010504,0.00082997,0.00000
 205,0.00003681,-0.00001865,0.00003836,-0.00001825,0.,-0.07094173,-0.27
 607589,0.,-0.00001464,0.00001746,0.,-0.00000241,0.00000315,0.,0.000000
 29,0.00000409,0.00000174,0.00000029,0.00000409,-0.00000174,0.07910633,
 0.30138258,0.,0.,-0.00011975,0.,0.,0.00001421,0.,0.,-0.00010281,0.,0.,
 0.00002504,0.,0.,-0.00000513,0.00000196,0.00000292,0.00000092,-0.00000
 196,-0.00000292,0.00000092,0.,0.,-0.00000096,0.00000551,-0.00000022,-0
 .00000012,-0.00000551,0.00000022,-0.00000012,-0.00001358,0.00001857,0.
 00004905,0.00001358,-0.00001857,0.00004905,0.00007988,0.00006592,0.000
 05311,0.00112396,-0.00077025,-0.00057327,-0.00002432,-0.00004389,-0.00
 000098,-0.00008122,-0.00030370,-0.00002633,0.00008122,0.00030370,-0.00
 002633,-0.00005260,0.00002903,-0.00009318,-0.00007988,-0.00006592,0.00
 005311,0.,0.,-0.00033553,0.00005260,-0.00002903,-0.00009318,-0.0011239
 6,0.00077025,-0.00057327,0.00002432,0.00004389,-0.00000098,0.,0.,0.000
 17551,0.,0.,-0.04023268,0.,0.,0.00003606,0.,0.,-0.00000510,0.00000753,
 -0.00001427,-0.00000778,-0.00000753,0.00001427,-0.00000778,0.,0.,0.041
 92360,-0.00005030,0.00005345,-0.00045829,0.00000100,-0.00002082,0.0000
 4279,-0.00002482,0.00000988,-0.00097389,-0.00002097,-0.00003917,0.0001
 4061,0.00000429,-0.00004306,-0.00001414,0.00000891,0.00000855,0.000009
 25,-0.00000742,-0.00001540,-0.00000279,-0.00001516,-0.00000346,0.00000
 551,0.00004033,0.00000026,0.00001145,-0.00003972,0.00000067,0.00001253
 ,0.00006368,0.00006176,0.00023790,-0.00003574,-0.00013935,0.00022589,0
 .00061761,0.00007243,0.00035942,0.00296007,-0.00150516,0.00028490,0.00
 006146,-0.00004383,0.00010511,-0.00083685,-0.00019572,-0.00005768,0.00
 122047,-0.00067134,-0.00040602,0.00005757,-0.00008700,0.00017157,-0.00
 079317,0.00016455,0.00046475,-0.01118661,0.01612860,-0.02902816,0.0000
 9801,0.00008088,0.00019615,-0.00763353,-0.00069369,-0.00062297,-0.0000
 0499,-0.00000742,0.00007495,-0.00002272,0.00000338,-0.00036278,-0.0770
 8527,0.04264241,-0.07340495,-0.00002099,0.00001144,0.00003591,0.000000
 54,0.00000892,0.00000294,-0.00000044,0.00001548,0.00000569,-0.00000119
 ,-0.00000857,0.00000029,0.00322968,-0.00496184,0.00788467,0.08554679,-
 0.00004919,-0.00001921,-0.00000673,-0.00001559,0.00000291,0.00000584,-
 0.00000949,-0.00000764,0.00003472,0.00000200,0.00000897,0.00000362,0.0
 0000005,-0.00003228,-0.00000744,0.00000685,-0.00000121,0.00000587,0.00
 000188,-0.00000028,-0.00000538,0.00000245,0.00000062,-0.00000022,0.000
 00026,-0.00000237,0.00000298,0.00000067,-0.00000112,-0.00000146,0.0000
 3945,-0.00004668,-0.00000334,0.00004600,-0.00003925,0.00001172,-0.0000
 2522,0.00000570,-0.00000447,-0.00001053,-0.00007529,-0.00121201,-0.000
 01724,-0.00005422,-0.00002640,-0.00003569,0.00009459,0.00003056,0.0000
 9000,0.00024396,-0.00007402,-0.00003024,-0.00002201,-0.00006293,-0.000
 08385,-0.00003727,0.00000493,-0.00443058,-0.00014819,-0.00027862,0.000
 03896,-0.00006718,-0.00008330,-0.00119890,0.00052381,-0.00066121,0.000
 03067,-0.00000287,0.00000284,-0.00001423,0.00004219,0.00014760,0.04492
 675,-0.09522716,0.09604318,0.00000682,-0.00001303,0.00001350,0.0000039
 0,-0.00000270,-0.00000198,-0.00000189,-0.00000773,-0.00000246,-0.00000
 685,0.00000873,-0.00000464,0.01158602,-0.01297468,0.02581093,-0.045180
 75,0.10154775,-0.00004774,0.00009413,-0.00012862,-0.00001029,-0.000024
 67,0.00001195,0.00002936,0.00000671,-0.00029829,-0.00001125,-0.0000143
 5,0.00004039,0.00000226,-0.00003199,-0.00000787,0.00000470,0.00000031,
 0.00000253,-0.00000240,-0.00000577,0.00000024,-0.00000758,-0.00000078,
 -0.00000012,0.00001145,0.00000298,-0.00000270,-0.00001253,0.00000146,0
 .00000490,0.00003708,-0.00004277,0.00004393,0.00001990,-0.00009972,0.0
 0007711,0.00009332,0.00005930,0.00009856,0.00143993,-0.00011067,0.0004
 8694,-0.00001831,-0.00003093,0.00002864,-0.00028319,-0.00019523,0.0001
 1695,0.00042023,0.00016365,0.00018947,0.00002248,-0.00002204,0.0000379
 3,-0.00024079,0.00000022,0.00008668,0.00281285,-0.00111771,-0.00239758
 ,-0.00002518,-0.00000257,0.00006028,-0.00086914,0.00067661,0.00130997,
 -0.00003859,-0.00002791,-0.00000422,0.00001458,-0.00003873,-0.00009744
 ,-0.07773637,0.09697061,-0.22501662,-0.00000850,0.00000517,0.00000088,
 -0.00000652,0.00000206,0.00000095,0.00000539,-0.00000278,0.00000017,0.
 00000587,-0.00000946,0.00000250,-0.00048389,-0.00289516,-0.00006891,0.
 08483144,-0.10650055,0.24218548,-0.00005030,0.00005345,0.00045829,0.00
 000100,-0.00002082,-0.00004279,-0.00002482,0.00000988,0.00097389,-0.00
 002097,-0.00003917,-0.00014061,0.00000429,-0.00004306,0.00001414,-0.00
 000742,-0.00001540,0.00000279,0.00000891,0.00000855,-0.00000925,-0.000
 01516,-0.00000346,-0.00000551,-0.00003972,0.00000067,-0.00001253,0.000
 04033,0.00000026,-0.00001145,-0.00003574,-0.00013935,-0.00022589,0.000
 06368,0.00006176,-0.00023790,-0.00079317,0.00016455,-0.00046475,-0.007
 63353,-0.00069369,0.00062297,-0.00000499,-0.00000742,-0.00007495,0.001
 22047,-0.00067134,0.00040602,-0.00083685,-0.00019572,0.00005768,0.0000
 9801,0.00008088,-0.00019615,0.00061761,0.00007243,-0.00035942,-0.01118
 661,0.01612860,0.02902816,0.00005757,-0.00008700,-0.00017157,0.0029600
 7,-0.00150516,-0.00028490,0.00006146,-0.00004383,-0.00010511,-0.000022
 72,0.00000338,0.00036278,-0.07708527,0.04264241,0.07340495,-0.00002099
 ,0.00001144,-0.00003591,0.00000054,0.00000892,-0.00000294,-0.00000119,
 -0.00000857,-0.00000029,-0.00000044,0.00001548,-0.00000569,0.00322968,
 -0.00496184,-0.00788467,0.00399897,-0.00571530,-0.01002856,0.08554679,
 -0.00004919,-0.00001921,0.00000673,-0.00001559,0.00000291,-0.00000584,
 -0.00000949,-0.00000764,-0.00003472,0.00000200,0.00000897,-0.00000362,
 0.00000005,-0.00003228,0.00000744,0.00000188,-0.00000028,0.00000538,0.
 00000685,-0.00000121,-0.00000587,0.00000245,0.00000062,0.00000022,0.00
 000067,-0.00000112,0.00000146,0.00000026,-0.00000237,-0.00000298,0.000
 04600,-0.00003925,-0.00001172,0.00003945,-0.00004668,0.00000334,-0.000
 08385,-0.00003727,-0.00000493,-0.00119890,0.00052381,0.00066121,0.0000
 3067,-0.00000287,-0.00000284,0.00009000,0.00024396,0.00007402,-0.00003
 569,0.00009459,-0.00003056,0.00003896,-0.00006718,0.00008330,-0.000025
 22,0.00000570,0.00000447,-0.00443058,-0.00014819,0.00027862,-0.0000302
 4,-0.00002201,0.00006293,-0.00001053,-0.00007529,0.00121201,-0.0000172
 4,-0.00005422,0.00002640,-0.00001423,0.00004219,-0.00014760,0.04492675
 ,-0.09522716,-0.09604318,0.00000682,-0.00001303,-0.00001350,0.00000390
 ,-0.00000270,0.00000198,-0.00000685,0.00000873,0.00000464,-0.00000189,
 -0.00000773,0.00000246,0.01158602,-0.01297468,-0.02581093,-0.00571530,
 0.00622490,0.01312238,-0.04518075,0.10154775,0.00004774,-0.00009413,-0
 .00012862,0.00001029,0.00002467,0.00001195,-0.00002936,-0.00000671,-0.
 00029829,0.00001125,0.00001435,0.00004039,-0.00000226,0.00003199,-0.00
 000787,0.00000240,0.00000577,0.00000024,-0.00000470,-0.00000031,0.0000
 0253,0.00000758,0.00000078,-0.00000012,0.00001253,-0.00000146,0.000004
 90,-0.00001145,-0.00000298,-0.00000270,-0.00001990,0.00009972,0.000077
 11,-0.00003708,0.00004277,0.00004393,0.00024079,-0.00000022,0.00008668
 ,0.00086914,-0.00067661,0.00130997,0.00003859,0.00002791,-0.00000422,-
 0.00042023,-0.00016365,0.00018947,0.00028319,0.00019523,0.00011695,0.0
 0002518,0.00000257,0.00006028,-0.00009332,-0.00005930,0.00009856,-0.00
 281285,0.00111771,-0.00239758,-0.00002248,0.00002204,0.00003793,-0.001
 43993,0.00011067,0.00048694,0.00001831,0.00003093,0.00002864,-0.000014
 58,0.00003873,-0.00009744,0.07773637,-0.09697061,-0.22501662,0.0000085
 0,-0.00000517,0.00000088,0.00000652,-0.00000206,0.00000095,-0.00000587
 ,0.00000946,0.00000250,-0.00000539,0.00000278,0.00000017,0.00048389,0.
 00289516,-0.00006891,0.01002856,-0.01312238,-0.01681601,-0.08483144,0.
 10650055,0.24218548,0.00005805,0.00003454,0.00001662,0.00001951,0.0000
 0933,0.00001883,0.00000282,0.00001107,0.00001898,-0.00000308,-0.000011
 64,0.00003740,-0.00000682,0.00001397,-0.00000578,0.00000093,-0.0000212
 2,-0.00000352,-0.00000229,-0.00000724,0.00000246,-0.00001826,-0.000002
 67,0.00001427,-0.00002143,0.00001243,-0.00000239,-0.00001482,-0.000005
 85,-0.00000558,-0.00001773,0.00000788,-0.00010730,-0.00023633,-0.00004
 065,-0.00000762,-0.00010889,-0.00000305,-0.00017105,-0.00034339,-0.000
 00308,0.00095859,-0.00005909,0.00000037,-0.00004483,0.00043859,-0.0000
 0377,-0.00058207,0.00219177,0.00001384,0.00064486,-0.00001996,-0.00000
 255,-0.00011611,-0.00024221,0.00000002,-0.00008589,-0.00048429,0.00000
 029,-0.00123624,-0.00023642,0.00004138,-0.00000643,0.00098402,0.000005
 27,0.00150849,-0.35564190,-0.00209152,0.16624874,0.00006372,-0.0000441
 1,0.00002549,0.00003938,-0.00003204,0.00001231,-0.00001341,0.00000047,
 -0.00000614,-0.00001531,0.00001187,0.00002113,0.00000444,0.00000255,-0
 .00001553,0.00003392,-0.00000175,0.00001424,-0.00001974,-0.00000529,-0
 .00003196,0.00000371,-0.00001656,0.00005414,-0.00009696,0.00005283,-0.
 00002264,0.37389130,-0.00000076,-0.00023657,0.00103355,0.00001768,0.00
 001445,-0.00000201,0.00000864,0.00002324,-0.00000142,-0.00000636,-0.00
 000273,-0.00001144,0.00001981,-0.00003936,0.00005567,-0.00006730,-0.00
 007215,0.00001166,0.00001846,-0.00000525,-0.00004494,-0.00001717,-0.00
 001175,0.00000956,0.00001196,0.00001394,0.00001214,0.00000630,0.000003
 23,-0.00001042,-0.00001609,-0.00042071,-0.00079941,0.00024432,0.000023
 90,-0.00057616,0.00000013,0.00000959,-0.00000221,-0.00000170,0.0000737
 6,0.00000022,0.00000041,-0.00012134,-0.00000024,-0.00000494,0.00093135
 ,-0.00000321,0.00001456,0.00056963,0.00000316,0.00002883,-0.00042058,0
 .00080414,-0.00000271,-0.00014280,0.00000356,0.00001446,-0.00004236,0.
 00000051,-0.00025043,0.00002482,0.00058463,0.00000236,-0.00069968,-0.0
 0000513,-0.00209014,0.00469677,0.00096557,-0.00002966,-0.00024478,-0.0
 0104061,-0.00002152,0.00001875,0.00004979,0.00004125,0.00002803,-0.000
 03045,-0.00000307,-0.00002195,-0.00001588,0.00001376,-0.00000275,0.000
 03236,-0.00002116,-0.00010374,-0.00000322,-0.00003576,-0.00003635,-0.0
 0005278,0.00000505,-0.00000226,0.00002384,0.00004591,0.00006332,-0.000
 02180,0.00218019,-0.00186271,0.00000009,0.00000261,-0.00086444,0.00002
 321,0.00001729,0.00008804,-0.00000466,-0.00000274,-0.00046780,0.000020
 08,0.00001376,0.00006242,-0.00000623,0.00002505,-0.00001237,0.00001194
 ,0.00004012,-0.00000327,-0.00001030,-0.00001908,0.00001550,0.00000820,
 -0.00000071,-0.00000241,0.00003530,-0.00000835,0.00000282,-0.00001442,
 0.00000028,0.00000706,0.00000264,0.00018590,0.00059643,-0.00019514,-0.
 00003934,0.00046607,-0.00004634,-0.00000279,0.00049121,-0.00051757,0.0
 0000034,0.00141472,0.00019844,0.00000107,-0.00052417,-0.00126803,-0.00
 000491,-0.00046967,0.00782968,0.00004236,0.00001801,-0.00000030,-0.000
 18660,0.00059756,-0.00039188,-0.00000202,0.00000185,-0.00029561,-0.000
 00701,-0.00201089,-0.00019997,0.00003426,0.00047762,0.00000760,0.00000
 202,0.00180143,0.22410583,0.00130045,-0.17064140,-0.00000389,-0.000010
 85,-0.00087434,0.00003656,0.00000768,0.00012714,0.00001175,-0.00000691
 ,0.00007245,-0.00000984,-0.00000871,0.00000546,0.00001247,0.00001873,0
 .00000571,0.00001043,-0.00005781,0.00000953,-0.00002583,-0.00000017,-0
 .00001633,0.00003577,-0.00002760,0.00004826,-0.00011392,0.00002254,-0.
 00000623,-0.19819041,-0.00114894,0.16375306,0.00006372,-0.00004411,-0.
 00002549,-0.00001341,0.00000047,0.00000614,-0.00048429,0.00000029,0.00
 123624,0.00003938,-0.00003204,-0.00001231,-0.00001531,0.00001187,-0.00
 002113,0.00003392,-0.00000175,-0.00001424,0.00000444,0.00000255,0.0000
 1553,-0.00001974,-0.00000529,0.00003196,-0.00009696,0.00005283,0.00002
 264,0.00000371,-0.00001656,-0.00005414,-0.00001996,-0.00000255,0.00011
 611,-0.00023642,0.00004138,0.00000643,-0.00034339,-0.00000308,-0.00095
 859,-0.00010889,-0.00000305,0.00017105,-0.00005909,0.00000037,0.000044
 83,0.00043859,-0.00000377,0.00058208,0.00219177,0.00001384,-0.00064486
 ,-0.00001773,0.00000788,0.00010730,0.00098402,0.00000527,-0.00150849,0
 .00000282,0.00001107,-0.00001898,-0.00023633,-0.00004065,0.00000762,-0
 .00024221,0.00000002,0.00008589,-0.35564190,-0.00209152,-0.16624874,0.
 00005805,0.00003454,-0.00001662,-0.00000308,-0.00001164,-0.00003740,0.
 00001951,0.00000933,-0.00001883,-0.00000682,0.00001397,0.00000578,-0.0
 0000229,-0.00000724,-0.00000246,0.00000093,-0.00002122,0.00000352,-0.0
 0001826,-0.00000267,-0.00001427,-0.00001482,-0.00000585,0.00000558,-0.
 00002143,0.00001243,0.00000239,-0.02017073,-0.00010506,-0.03110205,0.3
 7389130,-0.00002966,-0.00024478,0.00104061,0.00004125,0.00002803,0.000
 03045,0.00001446,-0.00004236,-0.00000051,-0.00002152,0.00001875,-0.000
 04979,-0.00000307,-0.00002195,0.00001588,-0.00002116,-0.00010374,0.000
 00322,0.00001376,-0.00000275,-0.00003236,-0.00003576,-0.00003635,0.000
 05278,0.00004591,0.00006332,0.00002180,0.00000505,-0.00000226,-0.00002
 384,0.00002883,-0.00042058,-0.00080414,-0.00025043,0.00002482,-0.00058
 463,-0.00000170,0.00007376,-0.00000022,0.00000013,0.00000959,0.0000022
 1,0.00000041,-0.00012134,0.00000024,-0.00000494,0.00093135,0.00000321,
 0.00001456,0.00056963,-0.00000316,-0.00001609,-0.00042071,0.00079941,0
 .00000236,-0.00069968,0.00000513,0.00000864,0.00002324,0.00000142,0.00
 024432,0.00002390,0.00057616,-0.00000271,-0.00014280,-0.00000356,-0.00
 209014,0.00469677,-0.00096557,-0.00000076,-0.00023657,-0.00103355,-0.0
 0000636,-0.00000273,0.00001144,0.00001768,0.00001445,0.00000201,0.0000
 1981,-0.00003936,-0.00005567,0.00001846,-0.00000525,0.00004494,-0.0000
 6730,-0.00007215,-0.00001166,-0.00001717,-0.00001175,-0.00000956,0.000
 00630,0.00000323,0.00001042,0.00001196,0.00001394,-0.00001214,-0.00010
 506,-0.00208340,-0.00018017,0.00218019,-0.00186271,0.00000389,0.000010
 85,-0.00087434,-0.00001175,0.00000691,0.00007245,0.00029561,0.00000701
 ,-0.00201089,-0.00003656,-0.00000768,0.00012714,0.00000984,0.00000871,
 0.00000546,-0.00001043,0.00005781,0.00000953,-0.00001247,-0.00001873,0
 .00000571,0.00002583,0.00000017,-0.00001633,0.00011392,-0.00002254,-0.
 00000623,-0.00003577,0.00002760,0.00004826,0.00000030,0.00018660,0.000
 59756,0.00019997,-0.00003426,0.00047762,0.00051757,-0.00000034,0.00141
 472,0.00004634,0.00000279,0.00049121,-0.00019844,-0.00000107,-0.000524
 17,0.00126803,0.00000491,-0.00046967,-0.00782968,-0.00004237,0.0000180
 1,-0.00000264,-0.00018590,0.00059643,-0.00000760,-0.00000202,0.0018014
 3,0.00000466,0.00000274,-0.00046780,0.00019514,0.00003934,0.00046607,0
 .00039188,0.00000202,0.00000185,-0.22410583,-0.00130045,-0.17064140,-0
 .00000009,-0.00000261,-0.00086444,-0.00002008,-0.00001376,0.00006242,-
 0.00002321,-0.00001729,0.00008804,0.00000623,-0.00002505,-0.00001237,0
 .00001030,0.00001908,0.00001550,-0.00001194,-0.00004012,-0.00000327,-0
 .00000820,0.00000071,-0.00000241,0.00001442,-0.00000028,0.00000706,-0.
 00003530,0.00000835,0.00000282,0.03110205,0.00018017,0.00617622,0.1981
 9041,0.00114894,0.16375306,0.00006372,-0.00004411,0.00002549,-0.000013
 41,0.00000047,-0.00000614,-0.00048429,0.00000029,-0.00123624,0.0000393
 8,-0.00003204,0.00001231,-0.00001531,0.00001187,0.00002113,0.00000444,
 0.00000255,-0.00001553,0.00003392,-0.00000175,0.00001424,-0.00001974,-
 0.00000529,-0.00003196,0.00000371,-0.00001656,0.00005414,-0.00009696,0
 .00005283,-0.00002264,-0.00023642,0.00004138,-0.00000643,-0.00001996,-
 0.00000255,-0.00011611,0.00098402,0.00000527,0.00150849,-0.00024221,0.
 00000002,-0.00008589,-0.35564190,-0.00209152,0.16624874,0.00219177,0.0
 0001384,0.00064486,0.00043859,-0.00000377,-0.00058208,-0.00023633,-0.0
 0004065,-0.00000762,-0.00034339,-0.00000308,0.00095859,0.00000282,0.00
 001107,0.00001898,-0.00001773,0.00000788,-0.00010730,-0.00010889,-0.00
 000305,-0.00017105,-0.00005909,0.00000037,-0.00004483,0.00005805,0.000
 03454,0.00001662,-0.00000308,-0.00001164,0.00003740,0.00001951,0.00000
 933,0.00001883,-0.00000682,0.00001397,-0.00000578,0.00000093,-0.000021
 22,-0.00000352,-0.00000229,-0.00000724,0.00000246,-0.00001826,-0.00000
 267,0.00001427,-0.00002143,0.00001243,-0.00000239,-0.00001482,-0.00000
 585,-0.00000558,0.00001711,-0.00000007,-0.00000537,0.00002379,-0.00000
 018,-0.00005175,0.37389130,-0.00002966,-0.00024478,-0.00104061,0.00004
 125,0.00002803,-0.00003045,0.00001446,-0.00004236,0.00000051,-0.000021
 52,0.00001875,0.00004979,-0.00000307,-0.00002195,-0.00001588,0.0000137
 6,-0.00000275,0.00003236,-0.00002116,-0.00010374,-0.00000322,-0.000035
 76,-0.00003635,-0.00005278,0.00000505,-0.00000226,0.00002384,0.0000459
 1,0.00006332,-0.00002180,-0.00025043,0.00002482,0.00058463,0.00002883,
 -0.00042058,0.00080414,0.00000236,-0.00069968,-0.00000513,-0.00000271,
 -0.00014280,0.00000356,-0.00209014,0.00469677,0.00096557,0.00001456,0.
 00056963,0.00000316,-0.00000494,0.00093135,-0.00000321,0.00024432,0.00
 002390,-0.00057616,-0.00000170,0.00007376,0.00000022,0.00000864,0.0000
 2324,-0.00000142,-0.00001609,-0.00042071,-0.00079941,0.00000013,0.0000
 0959,-0.00000221,0.00000041,-0.00012134,-0.00000024,-0.00000076,-0.000
 23657,0.00103355,-0.00000636,-0.00000273,-0.00001144,0.00001768,0.0000
 1445,-0.00000201,0.00001981,-0.00003936,0.00005567,-0.00006730,-0.0000
 7215,0.00001166,0.00001846,-0.00000525,-0.00004494,-0.00001717,-0.0000
 1175,0.00000956,0.00001196,0.00001394,0.00001214,0.00000630,0.00000323
 ,-0.00001042,-0.00000007,0.00003421,-0.00000002,-0.00000018,0.00004422
 ,-0.00000025,0.00218019,-0.00186271,-0.00000389,-0.00001085,-0.0008743
 4,0.00001175,-0.00000691,0.00007245,-0.00029561,-0.00000701,-0.0020108
 9,0.00003656,0.00000768,0.00012714,-0.00000984,-0.00000871,0.00000546,
 0.00001247,0.00001873,0.00000571,0.00001043,-0.00005781,0.00000953,-0.
 00002583,-0.00000017,-0.00001633,0.00003577,-0.00002760,0.00004826,-0.
 00011392,0.00002254,-0.00000623,-0.00019997,0.00003426,0.00047762,-0.0
 0000030,-0.00018660,0.00059756,0.00000760,0.00000202,0.00180143,-0.000
 39188,-0.00000202,0.00000185,0.22410583,0.00130045,-0.17064140,0.00782
 968,0.00004237,0.00001801,-0.00126803,-0.00000491,-0.00046967,-0.00019
 514,-0.00003934,0.00046607,-0.00051757,0.00000034,0.00141472,-0.000004
 66,-0.00000274,-0.00046780,0.00000264,0.00018590,0.00059643,-0.0000463
 4,-0.00000279,0.00049121,0.00019844,0.00000107,-0.00052417,0.00000009,
 0.00000261,-0.00086444,0.00002008,0.00001376,0.00006242,0.00002321,0.0
 0001729,0.00008804,-0.00000623,0.00002505,-0.00001237,0.00001194,0.000
 04012,-0.00000327,-0.00001030,-0.00001908,0.00001550,0.00000820,-0.000
 00071,-0.00000241,0.00003530,-0.00000835,0.00000282,-0.00001442,0.0000
 0028,0.00000706,-0.00000537,-0.00000002,-0.00022423,0.00005175,0.00000
 025,-0.00012102,-0.19819041,-0.00114894,0.16375306,0.00005805,0.000034
 54,-0.00001662,0.00001951,0.00000933,-0.00001883,0.00000282,0.00001107
 ,-0.00001898,-0.00000308,-0.00001164,-0.00003740,-0.00000682,0.0000139
 7,0.00000578,-0.00000229,-0.00000724,-0.00000246,0.00000093,-0.0000212
 2,0.00000352,-0.00001826,-0.00000267,-0.00001427,-0.00001482,-0.000005
 85,0.00000558,-0.00002143,0.00001243,0.00000239,-0.00023633,-0.0000406
 5,0.00000762,-0.00001773,0.00000788,0.00010730,-0.00024221,0.00000002,
 0.00008589,0.00098402,0.00000527,-0.00150849,-0.35564190,-0.00209152,-
 0.16624874,0.00219177,0.00001384,-0.00064486,0.00043859,-0.00000377,0.
 00058207,-0.00023642,0.00004138,0.00000643,-0.00010889,-0.00000305,0.0
 0017105,-0.00048429,0.00000029,0.00123624,-0.00001996,-0.00000255,0.00
 011611,-0.00034339,-0.00000308,-0.00095859,-0.00005909,0.00000037,0.00
 004483,0.00006372,-0.00004411,-0.00002549,0.00003938,-0.00003204,-0.00
 001231,-0.00001341,0.00000047,0.00000614,-0.00001531,0.00001187,-0.000
 02113,0.00003392,-0.00000175,-0.00001424,0.00000444,0.00000255,0.00001
 553,-0.00001974,-0.00000529,0.00003196,-0.00009696,0.00005283,0.000022
 64,0.00000371,-0.00001656,-0.00005414,0.00002379,-0.00000018,0.0000517
 5,0.00001711,-0.00000007,0.00000537,-0.02017073,-0.00010506,-0.0311020
 5,0.37389130,-0.00000076,-0.00023657,-0.00103355,0.00001768,0.00001445
 ,0.00000201,0.00000864,0.00002324,0.00000142,-0.00000636,-0.00000273,0
 .00001144,0.00001981,-0.00003936,-0.00005567,0.00001846,-0.00000525,0.
 00004494,-0.00006730,-0.00007215,-0.00001166,-0.00001717,-0.00001175,-
 0.00000956,0.00000630,0.00000323,0.00001042,0.00001196,0.00001394,-0.0
 0001214,0.00024432,0.00002390,0.00057616,-0.00001609,-0.00042071,0.000
 79941,-0.00000271,-0.00014280,-0.00000356,0.00000236,-0.00069968,0.000
 00513,-0.00209014,0.00469677,-0.00096557,0.00001456,0.00056963,-0.0000
 0316,-0.00000494,0.00093135,0.00000321,-0.00025043,0.00002482,-0.00058
 463,0.00000013,0.00000959,0.00000221,0.00001446,-0.00004236,-0.0000005
 1,0.00002883,-0.00042058,-0.00080414,-0.00000170,0.00007376,-0.0000002
 2,0.00000041,-0.00012134,0.00000024,-0.00002966,-0.00024478,0.00104061
 ,-0.00002152,0.00001875,-0.00004979,0.00004125,0.00002803,0.00003045,-
 0.00000307,-0.00002195,0.00001588,-0.00002116,-0.00010374,0.00000322,0
 .00001376,-0.00000275,-0.00003236,-0.00003576,-0.00003635,0.00005278,0
 .00004591,0.00006332,0.00002180,0.00000505,-0.00000226,-0.00002384,-0.
 00000018,0.00004422,0.00000025,-0.00000007,0.00003421,0.00000002,-0.00
 010506,-0.00208340,-0.00018017,0.00218019,-0.00186271,-0.00000009,-0.0
 0000261,-0.00086444,-0.00002321,-0.00001729,0.00008804,0.00000466,0.00
 000274,-0.00046780,-0.00002008,-0.00001376,0.00006242,0.00000623,-0.00
 002505,-0.00001237,0.00001030,0.00001908,0.00001550,-0.00001194,-0.000
 04012,-0.00000327,-0.00000820,0.00000071,-0.00000241,0.00001442,-0.000
 00028,0.00000706,-0.00003530,0.00000835,0.00000282,0.00019514,0.000039
 34,0.00046607,-0.00000264,-0.00018590,0.00059643,0.00039188,0.00000202
 ,0.00000185,-0.00000760,-0.00000202,0.00180143,-0.22410583,-0.00130045
 ,-0.17064140,-0.00782968,-0.00004236,0.00001801,0.00126803,0.00000491,
 -0.00046967,0.00019997,-0.00003426,0.00047762,0.00004634,0.00000279,0.
 00049121,0.00029561,0.00000701,-0.00201089,0.00000030,0.00018660,0.000
 59756,0.00051757,-0.00000034,0.00141472,-0.00019844,-0.00000107,-0.000
 52417,0.00000389,0.00001085,-0.00087434,-0.00003656,-0.00000768,0.0001
 2714,-0.00001175,0.00000691,0.00007245,0.00000984,0.00000871,0.0000054
 6,-0.00001043,0.00005781,0.00000953,-0.00001247,-0.00001873,0.00000571
 ,0.00002583,0.00000017,-0.00001633,0.00011392,-0.00002254,-0.00000623,
 -0.00003577,0.00002760,0.00004826,-0.00005175,-0.00000025,-0.00012102,
 0.00000537,0.00000002,-0.00022423,0.03110205,0.00018017,0.00617622,0.1
 9819041,0.00114894,0.16375306\\-0.00000022,-0.00000005,0.,0.00000007,0
 .00000003,0.,0.00000008,0.00000015,0.,0.00000008,0.00000003,0.,-0.0000
 0007,-0.00000004,0.,-0.00000007,0.,-0.00000003,-0.00000007,0.,0.000000
 03,-0.00000007,0.,0.,-0.00000002,0.00000007,-0.00000005,-0.00000002,0.
 00000007,0.00000005,0.00000002,0.00000001,0.00000007,0.00000002,0.0000
 0001,-0.00000007,-0.00000004,-0.00000002,-0.00000012,0.00000004,0.0000
 0002,-0.00000012,0.,0.,0.00000005,0.,0.,0.00000005,0.,0.,-0.00000005,-
 0.00000002,-0.00000001,0.00000007,-0.00000004,-0.00000002,0.00000012,-
 0.00000008,-0.00000015,0.,-0.00000002,-0.00000001,-0.00000007,0.000000
 04,0.00000002,0.00000012,0.,0.,-0.00000005,0.00000022,0.00000005,0.,-0
 .00000008,-0.00000003,0.,-0.00000007,-0.00000003,0.,0.00000007,0.00000
 004,0.,0.00000007,0.,0.00000003,0.00000007,0.,-0.00000003,0.00000007,0
 .,0.,0.00000002,-0.00000007,0.00000005,0.00000002,-0.00000007,-0.00000
 005,0.,-0.00000001,0.00000002,0.,0.00000001,0.00000002,0.,0.00000001,-
 0.00000002,0.,-0.00000001,-0.00000002\\\@


      TO SUSPECT YOUR OWN MORTALITY IS TO KNOW THE BEGINNING OF TERROR.
      TO LEARN IRREFUTABLY THAT YOU ARE MORTAL IS TO KNOW THE END
      OF TERROR.

                                                  -- JESSICA
                                                     CHILDREN OF DUNE
                                                     BY FRANK HERBERT
 Job cpu time:  0 days  0 hours 52 minutes  2.5 seconds.
 File lengths (MBytes):  RWF=    152 Int=      0 D2E=      0 Chk=      6 Scr=      1
 Normal termination of Gaussian 09 at Mon Dec  3 17:19:51 2012.
