 Entering Gaussian System, Link 0=/net/cottusp/opt/gaussian/g09revA02_amd64/g09/g09
 Input=rhac_uc.com
 Output=rhac_uc.log
 Initial command:
 /net/cottusp/opt/gaussian/g09revA02_amd64/g09/l1.exe /u1/scratch/case/Gau-5550.inp -scrdir=/u1/scratch/case/
 Entering Link 1 = /net/cottusp/opt/gaussian/g09revA02_amd64/g09/l1.exe PID=      5551.
  
 Copyright (c) 1988,1990,1992,1993,1995,1998,2003,2009, Gaussian, Inc.
                  All Rights Reserved.
  
 This is part of the Gaussian(R) 09 program.  It is based on
 the Gaussian(R) 03 system (copyright 2003, Gaussian, Inc.),
 the Gaussian(R) 98 system (copyright 1998, Gaussian, Inc.),
 the Gaussian(R) 94 system (copyright 1995, Gaussian, Inc.),
 the Gaussian 92(TM) system (copyright 1992, Gaussian, Inc.),
 the Gaussian 90(TM) system (copyright 1990, Gaussian, Inc.),
 the Gaussian 88(TM) system (copyright 1988, Gaussian, Inc.),
 the Gaussian 86(TM) system (copyright 1986, Carnegie Mellon
 University), and the Gaussian 82(TM) system (copyright 1983,
 Carnegie Mellon University). Gaussian is a federally registered
 trademark of Gaussian, Inc.
  
 This software contains proprietary and confidential information,
 including trade secrets, belonging to Gaussian, Inc.
  
 This software is provided under written license and may be
 used, copied, transmitted, or stored only in accord with that
 written license.
  
 The following legend is applicable only to US Government
 contracts under FAR:
  
                    RESTRICTED RIGHTS LEGEND
  
 Use, reproduction and disclosure by the US Government is
 subject to restrictions as set forth in subparagraphs (a)
 and (c) of the Commercial Computer Software - Restricted
 Rights clause in FAR 52.227-19.
  
 Gaussian, Inc.
 340 Quinnipiac St., Bldg. 40, Wallingford CT 06492
  
  
 ---------------------------------------------------------------
 Warning -- This program may not be used in any manner that
 competes with the business of Gaussian, Inc. or will provide
 assistance to any competitor of Gaussian, Inc.  The licensee
 of this program is prohibited from giving any competitor of
 Gaussian, Inc. access to this program.  By using this program,
 the user acknowledges that Gaussian, Inc. is engaged in the
 business of creating and licensing software in the field of
 computational chemistry and represents and warrants to the
 licensee that it is not a competitor of Gaussian, Inc. and that
 it will not use this program in any manner prohibited above.
 ---------------------------------------------------------------
  

 Cite this work as:
 Gaussian 09, Revision A.02,
 M. J. Frisch, G. W. Trucks, H. B. Schlegel, G. E. Scuseria, 
 M. A. Robb, J. R. Cheeseman, G. Scalmani, V. Barone, B. Mennucci, 
 G. A. Petersson, H. Nakatsuji, M. Caricato, X. Li, H. P. Hratchian, 
 A. F. Izmaylov, J. Bloino, G. Zheng, J. L. Sonnenberg, M. Hada, 
 M. Ehara, K. Toyota, R. Fukuda, J. Hasegawa, M. Ishida, T. Nakajima, 
 Y. Honda, O. Kitao, H. Nakai, T. Vreven, J. A. Montgomery, Jr., 
 J. E. Peralta, F. Ogliaro, M. Bearpark, J. J. Heyd, E. Brothers, 
 K. N. Kudin, V. N. Staroverov, R. Kobayashi, J. Normand, 
 K. Raghavachari, A. Rendell, J. C. Burant, S. S. Iyengar, J. Tomasi, 
 M. Cossi, N. Rega, J. M. Millam, M. Klene, J. E. Knox, J. B. Cross, 
 V. Bakken, C. Adamo, J. Jaramillo, R. Gomperts, R. E. Stratmann, 
 O. Yazyev, A. J. Austin, R. Cammi, C. Pomelli, J. W. Ochterski, 
 R. L. Martin, K. Morokuma, V. G. Zakrzewski, G. A. Voth, 
 P. Salvador, J. J. Dannenberg, S. Dapprich, A. D. Daniels, 
 O. Farkas, J. B. Foresman, J. V. Ortiz, J. Cioslowski, 
 and D. J. Fox, Gaussian, Inc., Wallingford CT, 2009.
 
 ******************************************
 Gaussian 09:  AM64L-G09RevA.02 11-Jun-2009
                 9-Jan-2014 
 ******************************************
 %NProcShared=4
 Will use up to    4 processors via shared memory.
 %mem=900MW
 ---------------------------
 #BP86/LanL2MB PBC=GammaOnly
 ---------------------------
 1/38=1/1;
 2/12=2,17=6,18=5,40=1/2;
 3/5=6,6=2,11=2,16=1,25=1,30=1,65=-1,74=404/1,2,3;
 4//1;
 5/5=2,38=5/2;
 6/7=2,8=2,9=2,10=2,28=1/1;
 99/5=1,9=1/99;
 ---------------------------------------------
 di-rhodium tetra-acetate dihydrate, unit cell
 ---------------------------------------------
 Symbolic Z-matrix:
 Charge =  0 Multiplicity = 1
 C                     1.263     0.192     2.302 
 C                     1.926     0.342     3.636 
 H                     1.27      0.603     4.22 
 H                     2.689     1.119     3.708 
 O                     1.793     0.751     1.3 
 O                    -3.926     1.815     10.839 
 Rh                   -5.564     0.642     11.966 
 H                     2.144     8.083     4.095 
 O                     0.192     8.113     2.262 
 C                    -5.184     6.399     11.83 
 C                    -4.486     5.133     11.431 
 H                    -4.427     5.096     10.488 
 H                    -4.982     4.27      11.412 
 H                    -3.783     5.001     11.999 
 O                    -4.633     7.497     11.511 
 O                    -6.269     6.291     12.48 
 O                     13.131    2.317     0.006 
 C                     12.046    2.209     0.656 
 O                     11.495    1.111     0.975 
 C                     11.348    3.475     1.055 
 H                     11.289    3.512     1.998 
 H                     11.844    4.338     1.074 
 H                     10.645    3.607     0.487 
 O                     6.67      0.495     10.223 
 H                     4.717     0.525     8.39 
 Rh                    12.426    7.966     0.52 
 O                     10.788    6.793     1.647 
 O                     5.069     7.857     11.186 
 C                     5.599     8.416     10.183 
 C                     4.935     8.266     8.85 
 H                     5.592     8.005     8.266 
 H                     4.173     7.489     8.778 
 H                     5.201     0.034     1.074 
 C                     7.906     4.496     2.302 
 C                     8.57      4.646     3.636 
 H                     7.913     4.907     4.22 
 H                     9.333     5.423     3.708 
 H                     8.788     3.779     4.095 
 O                     8.437     5.055     1.3 
 O                     6.836     3.809     2.262 
 O                     6.487     6.621     0.006 
 Rh                    5.783     3.662     0.52 
 C                     5.403     6.513     0.656 
 O                     4.852     5.415     0.975 
 O                     4.144     2.489     1.647 
 C                     4.704     7.779     1.055 
 H                     4.646     7.816     1.998 
 H                     4.001     7.911     0.487 
 C                     1.459     2.095     11.83 
 C                     2.158     0.829     11.431 
 H                     2.216     0.792     10.488 
 H                     2.861     0.697     11.999 
 O                     2.01      3.193     11.511 
 O                     2.717     6.119     10.839 
 Rh                    1.079     4.946     11.966 
 O                     0.026     4.799     10.223 
 O                     0.374     1.987     12.48 
 O                    -1.575     3.553     11.186 
 C                    -1.044     4.112     10.183 
 C                    -1.708     3.962     8.85 
 H                    -1.051     3.701     8.266 
 H                    -2.471     3.185     8.778 
 H                    -1.926     4.829     8.39 
 H                     1.661     8.574     11.412 
 O                    -3.057     2.317     6.237 
 O                    -3.02      0.495     8.505 
 C                    -1.972     2.209     5.587 
 O                    -1.421     1.111     5.268 
 C                    -1.273     3.475     5.188 
 H                    -1.215     3.512     4.245 
 H                    -1.77      4.338     5.169 
 H                    -0.57      3.607     5.756 
 H                    -1.068     0.525     10.338 
 Rh                   -2.352     7.966     5.723 
 O                    -1.419     7.857     7.543 
 O                    -0.714     6.793     4.596 
 C                    -1.95      8.416     8.545 
 C                    -1.286     8.266     9.879 
 H                    -1.943     8.005     10.463 
 H                    -0.524     7.489     9.951 
 C                     8.812     0.192     3.941 
 C                     8.148     0.342     2.607 
 H                     8.805     0.603     2.023 
 H                     7.385     1.119     2.535 
 O                     8.281     0.751     4.943 
 O                     7.575     1.815     7.89 
 Rh                    9.214     0.642     6.762 
 C                     8.834     6.399     6.898 
 C                     8.135     5.133     7.298 
 H                     7.93      8.083     2.148 
 H                     8.076     5.096     8.241 
 H                     8.632     4.27      7.317 
 H                     7.432     5.001     6.73 
 O                     9.882     8.113     3.98 
 O                     8.282     7.497     7.218 
 O                     9.918     6.291     6.249 
 H                     4.874     0.034     5.169 
 C                     2.168     4.496     3.941 
 C                     1.505     4.646     2.607 
 C                     2.19      2.095     6.898 
 C                     1.492     0.829     7.298 
 H                     2.161     4.907     2.023 
 H                     0.742     5.423     2.535 
 H                     1.287     3.779     2.148 
 H                     1.433     0.792     8.241 
 H                     0.789     0.697     6.73 
 O                     1.638     5.055     4.943 
 O                     3.239     3.809     3.98 
 O                     1.639     3.193     7.218 
 O                     3.587     6.621     6.237 
 O                     0.932     6.119     7.89 
 Rh                    2.57      4.946     6.762 
 Rh                    4.292     3.662     5.723 
 O                     3.623     4.799     8.505 
 O                     3.275     1.987     6.249 
 C                     4.672     6.513     5.587 
 O                     5.224     3.553     7.543 
 O                     5.223     5.415     5.268 
 O                     5.93      2.489     4.596 
 C                     4.694     4.112     8.545 
 C                     5.37      7.779     5.188 
 C                     5.357     3.962     9.879 
 H                     5.429     7.816     4.245 
 H                     6.073     7.911     5.756 
 H                     4.701     3.701     10.463 
 H                     6.12      3.185     9.951 
 H                     5.575     4.829     10.338 
 H                     1.988     8.574     7.317 
 TV                    13.287    0.        0. 
 TV                    0.        8.608     0. 
 TV                   -6.4251    0.        12.4858 
 
 Symmetry turned off:
 Cannot cope with ghost atoms or with translation vectors.
 Stoichiometry    C32H48O40Rh8
 Framework group  C1[X(C32H48O40Rh8)]
 Deg. of freedom   378
 Full point group                 C1      NOp   1
                         Z-Matrix orientation:                         
 ---------------------------------------------------------------------
 Center     Atomic      Atomic             Coordinates (Angstroms)
 Number     Number       Type             X           Y           Z
 ---------------------------------------------------------------------
      1          6           0       -2.167930   -4.112000   -3.940906
      2          6           0       -1.504930   -3.962000   -2.606906
      3          1           0       -2.160930   -3.701000   -2.022906
      4          1           0       -0.741930   -3.185000   -2.534906
      5          8           0       -1.637930   -3.553000   -4.942906
      6          8           0       -7.356930   -2.489000    4.596094
      7         45           0       -8.994930   -3.662000    5.723094
      8          1           0       -1.286930    3.779000   -2.147906
      9          8           0       -3.238930    3.809000   -3.980906
     10          6           0       -8.614930    2.095000    5.587094
     11          6           0       -7.916930    0.829000    5.188094
     12          1           0       -7.857930    0.792000    4.245094
     13          1           0       -8.412930   -0.034000    5.169094
     14          1           0       -7.213930    0.697000    5.756094
     15          8           0       -8.063930    3.193000    5.268094
     16          8           0       -9.699930    1.987000    6.237094
     17          8           0        9.700070   -1.987000   -6.236906
     18          6           0        8.615070   -2.095000   -5.586906
     19          8           0        8.064070   -3.193000   -5.267906
     20          6           0        7.917070   -0.829000   -5.187906
     21          1           0        7.858070   -0.792000   -4.244906
     22          1           0        8.413070    0.034000   -5.168906
     23          1           0        7.214070   -0.697000   -5.755906
     24          8           0        3.239070   -3.809000    3.980094
     25          1           0        1.286070   -3.779000    2.147094
     26         45           0        8.995070    3.662000   -5.722906
     27          8           0        7.357070    2.489000   -4.595906
     28          8           0        1.638070    3.553000    4.943094
     29          6           0        2.168070    4.112000    3.940094
     30          6           0        1.504070    3.962000    2.607094
     31          1           0        2.161070    3.701000    2.023094
     32          1           0        0.742070    3.185000    2.535094
     33          1           0        1.770070   -4.270000   -5.168906
     34          6           0        4.475070    0.192000   -3.940906
     35          6           0        5.139070    0.342000   -2.606906
     36          1           0        4.482070    0.603000   -2.022906
     37          1           0        5.902070    1.119000   -2.534906
     38          1           0        5.357070   -0.525000   -2.147906
     39          8           0        5.006070    0.751000   -4.942906
     40          8           0        3.405070   -0.495000   -3.980906
     41          8           0        3.056070    2.317000   -6.236906
     42         45           0        2.352070   -0.642000   -5.722906
     43          6           0        1.972070    2.209000   -5.586906
     44          8           0        1.421070    1.111000   -5.267906
     45          8           0        0.713070   -1.815000   -4.595906
     46          6           0        1.273070    3.475000   -5.187906
     47          1           0        1.215070    3.512000   -4.244906
     48          1           0        0.570070    3.607000   -5.755906
     49          6           0       -1.971930   -2.209000    5.587094
     50          6           0       -1.272930   -3.475000    5.188094
     51          1           0       -1.214930   -3.512000    4.245094
     52          1           0       -0.569930   -3.607000    5.756094
     53          8           0       -1.420930   -1.111000    5.268094
     54          8           0       -0.713930    1.815000    4.596094
     55         45           0       -2.351930    0.642000    5.723094
     56          8           0       -3.404930    0.495000    3.980094
     57          8           0       -3.056930   -2.317000    6.237094
     58          8           0       -5.005930   -0.751000    4.943094
     59          6           0       -4.474930   -0.192000    3.940094
     60          6           0       -5.138930   -0.342000    2.607094
     61          1           0       -4.481930   -0.603000    2.023094
     62          1           0       -5.901930   -1.119000    2.535094
     63          1           0       -5.356930    0.525000    2.147094
     64          1           0       -1.769930    4.270000    5.169094
     65          8           0       -6.487930   -1.987000   -0.005906
     66          8           0       -6.450930   -3.809000    2.262094
     67          6           0       -5.402930   -2.095000   -0.655906
     68          8           0       -4.851930   -3.193000   -0.974906
     69          6           0       -4.703930   -0.829000   -1.054906
     70          1           0       -4.645930   -0.792000   -1.997906
     71          1           0       -5.200930    0.034000   -1.073906
     72          1           0       -4.000930   -0.697000   -0.486906
     73          1           0       -4.498930   -3.779000    4.095094
     74         45           0       -5.782930    3.662000   -0.519906
     75          8           0       -4.849930    3.553000    1.300094
     76          8           0       -4.144930    2.489000   -1.646906
     77          6           0       -5.380930    4.112000    2.302094
     78          6           0       -4.716930    3.962000    3.636094
     79          1           0       -5.373930    3.701000    4.220094
     80          1           0       -3.954930    3.185000    3.708094
     81          6           0        5.381070   -4.112000   -2.301906
     82          6           0        4.717070   -3.962000   -3.635906
     83          1           0        5.374070   -3.701000   -4.219906
     84          1           0        3.954070   -3.185000   -3.707906
     85          8           0        4.850070   -3.553000   -1.299906
     86          8           0        4.144070   -2.489000    1.647094
     87         45           0        5.783070   -3.662000    0.519094
     88          6           0        5.403070    2.095000    0.655094
     89          6           0        4.704070    0.829000    1.055094
     90          1           0        4.499070    3.779000   -4.094906
     91          1           0        4.645070    0.792000    1.998094
     92          1           0        5.201070   -0.034000    1.074094
     93          1           0        4.001070    0.697000    0.487094
     94          8           0        6.451070    3.809000   -2.262906
     95          8           0        4.851070    3.193000    0.975094
     96          8           0        6.487070    1.987000    0.006094
     97          1           0        1.443070   -4.270000   -1.073906
     98          6           0       -1.262930    0.192000   -2.301906
     99          6           0       -1.925930    0.342000   -3.635906
    100          6           0       -1.240930   -2.209000    0.655094
    101          6           0       -1.938930   -3.475000    1.055094
    102          1           0       -1.269930    0.603000   -4.219906
    103          1           0       -2.688930    1.119000   -3.707906
    104          1           0       -2.143930   -0.525000   -4.094906
    105          1           0       -1.997930   -3.512000    1.998094
    106          1           0       -2.641930   -3.607000    0.487094
    107          8           0       -1.792930    0.751000   -1.299906
    108          8           0       -0.191930   -0.495000   -2.262906
    109          8           0       -1.791930   -1.111000    0.975094
    110          8           0        0.156070    2.317000   -0.005906
    111          8           0       -2.498930    1.815000    1.647094
    112         45           0       -0.860930    0.642000    0.519094
    113         45           0        0.861070   -0.642000   -0.519906
    114          8           0        0.192070    0.495000    2.262094
    115          8           0       -0.155930   -2.317000    0.006094
    116          6           0        1.241070    2.209000   -0.655906
    117          8           0        1.793070   -0.751000    1.300094
    118          8           0        1.792070    1.111000   -0.974906
    119          8           0        2.499070   -1.815000   -1.646906
    120          6           0        1.263070   -0.192000    2.302094
    121          6           0        1.939070    3.475000   -1.054906
    122          6           0        1.926070   -0.342000    3.636094
    123          1           0        1.998070    3.512000   -1.997906
    124          1           0        2.642070    3.607000   -0.486906
    125          1           0        1.270070   -0.603000    4.220094
    126          1           0        2.689070   -1.119000    3.708094
    127          1           0        2.144070    0.525000    4.095094
    128          1           0       -1.442930    4.270000    1.074094
    129         -2           0       13.287000    0.000000    0.000000
    130         -2           0        0.000000    8.608000    0.000000
    131         -2           0       -6.425100    0.000000   12.485800
 ---------------------------------------------------------------------
 Lengths of translation vectors:     13.287000    8.608000   14.041977
  Angles of translation vectors:     90.000000  117.230014   90.000000
 ---------------------------------------------------------------------
 Standard basis: LANL2MB (5D, 7F)
 Integral buffers will be    131072 words long.
 Raffenetti 2 integral format.
 Two-electron integral symmetry is turned off.
   512 basis functions,  1616 primitive gaussians,   520 cartesian basis functions
   348 alpha electrons      348 beta electrons
       nuclear repulsion energy     19211.3276085156 Hartrees.
 NAtoms=  128 NActive=  128 NUniq=  128 SFac= 7.50D-01 NAtFMM=   80 NAOKFM=T Big=T
 FOutLm=  100.00.
 Periodicity:                           1               1               1
 Max integer dimensions:                5               7               5
   PBC vector 1 X=    25.1088 Y=    0.0000 Z=    0.0000
   PBC vector 2 X=     0.0000 Y=   16.2668 Z=    0.0000
   PBC vector 3 X=   -12.1417 Y=    0.0000 Z=   23.5947
  Recp vector 1 X=     0.0398 Y=    0.0000 Z=    0.0205
  Recp vector 2 X=     0.0000 Y=    0.0615 Z=    0.0000
  Recp vector 3 X=     0.0000 Y=    0.0000 Z=    0.0424
 One-electron integrals computed using PRISM.
   1 Symmetry operations used in ECPInt.
 ECPInt:  NShTT=   27028 NPrTT=  254572 LenC2=  191790 LenP2D=  652702.
 LDataN:  DoStor=T MaxTD1= 5 Len=  102
 NBasis=   512 RedAO= T  NBF=   512
 NBsUse=   512 1.00D-06 NBFU=   512
 RepCel:  MaxNCR=     677 NClRep=     677 NMtPBC=       1.
 Defaulting to unpruned grid for atomic number  45.
 Defaulting to unpruned grid for atomic number  45.
 Defaulting to unpruned grid for atomic number  45.
 Defaulting to unpruned grid for atomic number  45.
 Harris functional with IExCor=  404 diagonalized for initial guess.
 RepCel:  MaxNCR=     677 NClRep=     677 NMtPBC=       1.
 HarFok:  IExCor=  404 AccDes= 0.00D+00 IRadAn=         0 IDoV= 2
 ScaDFX=  1.000000  1.000000  1.000000  1.000000
 Dimensions of /B2/ exceeded in AtP2B2.
 Error termination via Lnk1e in /net/cottusp/opt/gaussian/g09revA02_amd64/g09/l401.exe at Thu Jan  9 06:13:37 2014.
 Job cpu time:  0 days  0 hours 29 minutes  8.7 seconds.
 File lengths (MBytes):  RWF=     41 Int=      0 D2E=      0 Chk=      1 Scr=      1
